%eval_id,velocity,friction,density_1,density_2,density_3,youngs_1,youngs_2,youngs_3,3D,timestep,element_10616_punch_tip_STRESS_xx_MIN,element_10616_punch_tip_STRESS_xx_MAX,element_10616_punch_tip_STRESS_yy_MIN,element_10616_punch_tip_STRESS_yy_MAX,element_10616_punch_tip_STRESS_zz_MIN,element_10616_punch_tip_STRESS_zz_MAX,element_10616_punch_tip_STRESS_xy_MIN,element_10616_punch_tip_STRESS_xy_MAX,element_10616_punch_tip_STRESS_yz_MIN,element_10616_punch_tip_STRESS_yz_MAX,element_10616_punch_tip_STRESS_zx_MIN,element_10616_punch_tip_STRESS_zx_MAX,[XYpair X]MDS Max X,[XYpair Y]MDS Max Y,[XYpair X]MDS Mean X,[XYpair Y]MDS Mean Y,[XYpair X]MDS RMS X,[XYpair Y]MDS RMS Y,[XYpair X]MDS STRESS_xx X,[XYpair Y]MDS STRESS_xx Y,[XYpair X]MDS STRESS_xy X,[XYpair Y]MDS STRESS_xy Y,[XYpair X]MDS STRESS_yy X,[XYpair Y]MDS STRESS_yy Y,[XYpair X]MDS STRESS_yz X,[XYpair Y]MDS STRESS_yz Y,[XYpair X]MDS STRESS_zz X,[XYpair Y]MDS STRESS_zz Y,[XYpair X]MDS VON_MISES X,[XYpair Y]MDS VON_MISES Y
9,-233,0.35,0.000214,0.000682,0.0265,10000000,29500000,29500000,file://localhost/home/slycat/src/slycat-data/metro-demo/surfaces/run.9.0.vtp,0,-239235.6456,51412.17814,-250828.0627,45419.62567,-279934.8775,13915.3256,-15707.35743,8987.110994,-57743.76672,38569.85276,-51921.58361,40215.81739,0.075292741,-0.037285444,-0.0160364,0.00147945,0.029349307,0.001741594,0.016702913,-0.027157124,0.023185709,-0.020703742,0.016099344,-0.027655342,0.025955968,-0.016351766,-0.039562947,-0.044662905,-0.08231376,-0.05398163
9,-233,0.35,0.000214,0.000682,0.0265,10000000,29500000,29500000,file://localhost/home/slycat/src/slycat-data/metro-demo/surfaces/run.9.50.vtp,50,-239235.6456,51412.17814,-250828.0627,45419.62567,-279934.8775,13915.3256,-15707.35743,8987.110994,-57743.76672,38569.85276,-51921.58361,40215.81739,0.074296896,-0.034505236,-0.014229051,0.001881099,0.02687228,0.001445064,0.029545006,-0.015029426,0.022875591,-0.015846309,0.029734109,-0.015561924,0.026216152,-0.008562307,0.01027201,-0.029997519,0.004481237,-0.047153279
9,-233,0.35,0.000214,0.000682,0.0265,10000000,29500000,29500000,file://localhost/home/slycat/src/slycat-data/metro-demo/surfaces/run.9.100.vtp,100,-239235.6456,51412.17814,-250828.0627,45419.62567,-279934.8775,13915.3256,-15707.35743,8987.110994,-57743.76672,38569.85276,-51921.58361,40215.81739,0.072727765,-0.031281122,-0.012612224,0.001404345,0.024410261,0.001168308,0.039354802,-0.001571715,0.026086857,-0.005619704,0.039936299,-0.001928931,0.025683199,-0.00177426,0.042936029,-0.014872404,0.055551614,-0.030320635
9,-233,0.35,0.000214,0.000682,0.0265,10000000,29500000,29500000,file://localhost/home/slycat/src/slycat-data/metro-demo/surfaces/run.9.150.vtp,150,-239235.6456,51412.17814,-250828.0627,45419.62567,-279934.8775,13915.3256,-15707.35743,8987.110994,-57743.76672,38569.85276,-51921.58361,40215.81739,0.071198837,-0.027887851,-0.011218108,0.000350592,0.02203128,0.000871201,0.040800764,0.007375484,0.0276525,0.002338366,0.041391314,0.007213168,0.024178464,0.002656962,0.057111404,-0.005963511,0.076567153,-0.013444146
9,-233,0.35,0.000214,0.000682,0.0265,10000000,29500000,29500000,file://localhost/home/slycat/src/slycat-data/metro-demo/surfaces/run.9.200.vtp,200,-239235.6456,51412.17814,-250828.0627,45419.62567,-279934.8775,13915.3256,-15707.35743,8987.110994,-57743.76672,38569.85276,-51921.58361,40215.81739,0.070443597,-0.025187788,-0.009877666,-0.000296036,0.019854654,0.000616667,0.037782708,0.01155581,0.028910935,0.009589491,0.038220711,0.011815116,0.022634294,0.006445717,0.065914958,0.000440601,0.090904614,-0.001250753
9,-233,0.35,0.000214,0.000682,0.0265,10000000,29500000,29500000,file://localhost/home/slycat/src/slycat-data/metro-demo/surfaces/run.9.250.vtp,250,-239235.6456,51412.17814,-250828.0627,45419.62567,-279934.8775,13915.3256,-15707.35743,8987.110994,-57743.76672,38569.85276,-51921.58361,40215.81739,0.069394601,-0.021780846,-0.008594847,-0.001140426,0.01770682,0.000362656,0.035965094,0.014544358,0.027670796,0.01257058,0.036461139,0.014579816,0.021002999,0.010126516,0.075168214,0.008796609,0.106590326,0.009378734
9,-233,0.35,0.000214,0.000682,0.0265,10000000,29500000,29500000,file://localhost/home/slycat/src/slycat-data/metro-demo/surfaces/run.9.300.vtp,300,-239235.6456,51412.17814,-250828.0627,45419.62567,-279934.8775,13915.3256,-15707.35743,8987.110994,-57743.76672,38569.85276,-51921.58361,40215.81739,0.068732785,-0.019494274,-0.007934342,-0.001789107,0.016434263,0.000319936,0.033391775,0.014815744,0.027523458,0.015053486,0.034214469,0.015014154,0.019861692,0.011821496,0.075302392,0.010894641,0.108673976,0.013136239
9,-233,0.35,0.000214,0.000682,0.0265,10000000,29500000,29500000,file://localhost/home/slycat/src/slycat-data/metro-demo/surfaces/run.9.350.vtp,350,-239235.6456,51412.17814,-250828.0627,45419.62567,-279934.8775,13915.3256,-15707.35743,8987.110994,-57743.76672,38569.85276,-51921.58361,40215.81739,0.068087265,-0.017781956,-0.007178952,-0.002104158,0.015097819,0.000237633,0.029818792,0.013090264,0.026911476,0.016902796,0.030592712,0.013229377,0.01841781,0.011520668,0.073303945,0.012110335,0.106461594,0.014264283
9,-233,0.35,0.000214,0.000682,0.0265,10000000,29500000,29500000,file://localhost/home/slycat/src/slycat-data/metro-demo/surfaces/run.9.400.vtp,400,-239235.6456,51412.17814,-250828.0627,45419.62567,-279934.8775,13915.3256,-15707.35743,8987.110994,-57743.76672,38569.85276,-51921.58361,40215.81739,0.067010106,-0.015145142,-0.0063506,-0.002183666,0.013606964,2.45E-05,0.029250272,0.015039357,0.025207692,0.017166059,0.03010722,0.015250717,0.016748225,0.011721784,0.073098151,0.013664622,0.106692767,0.016572294
9,-233,0.35,0.000214,0.000682,0.0265,10000000,29500000,29500000,file://localhost/home/slycat/src/slycat-data/metro-demo/surfaces/run.9.450.vtp,450,-239235.6456,51412.17814,-250828.0627,45419.62567,-279934.8775,13915.3256,-15707.35743,8987.110994,-57743.76672,38569.85276,-51921.58361,40215.81739,0.066396445,-0.011437799,-0.00567941,-0.001907778,0.012466722,-0.000122318,0.023338589,0.009773108,0.021287845,0.01255365,0.024108004,0.009914909,0.014885333,0.007514845,0.05588426,0.00790253,0.081662012,0.008609092
9,-233,0.35,0.000214,0.000682,0.0265,10000000,29500000,29500000,file://localhost/home/slycat/src/slycat-data/metro-demo/surfaces/run.9.500.vtp,500,-239235.6456,51412.17814,-250828.0627,45419.62567,-279934.8775,13915.3256,-15707.35743,8987.110994,-57743.76672,38569.85276,-51921.58361,40215.81739,0.069361793,-0.018335123,-0.005256558,-0.000835051,0.012033086,0.000283336,0.011550303,-0.004615092,0.015001845,0.001790578,0.011289262,-0.00543861,0.012745822,-0.00214846,0.020595453,-0.007196062,0.027885364,-0.011873443
9,-233,0.35,0.000214,0.000682,0.0265,10000000,29500000,29500000,file://localhost/home/slycat/src/slycat-data/metro-demo/surfaces/run.9.550.vtp,550,-239235.6456,51412.17814,-250828.0627,45419.62567,-279934.8775,13915.3256,-15707.35743,8987.110994,-57743.76672,38569.85276,-51921.58361,40215.81739,0.070176332,-0.016371804,-0.004340546,0.000315158,0.010791927,-0.000212995,0.001367675,-0.015171144,0.008658792,-0.008576575,0.002508814,-0.013528732,0.011373288,-0.005447605,0.006724173,-0.010987092,0.009871815,-0.015958988
9,-233,0.35,0.000214,0.000682,0.0265,10000000,29500000,29500000,file://localhost/home/slycat/src/slycat-data/metro-demo/surfaces/run.9.600.vtp,600,-239235.6456,51412.17814,-250828.0627,45419.62567,-279934.8775,13915.3256,-15707.35743,8987.110994,-57743.76672,38569.85276,-51921.58361,40215.81739,0.068606758,-0.011621038,-0.003605166,0.000154435,0.009452213,-0.000614122,0.001039708,-0.013463834,0.007998557,-0.007098994,0.000905457,-0.013392637,0.009950945,-0.004351866,0.001229523,-0.011157521,0.00102029,-0.015003471
9,-233,0.35,0.000214,0.000682,0.0265,10000000,29500000,29500000,file://localhost/home/slycat/src/slycat-data/metro-demo/surfaces/run.9.650.vtp,650,-239235.6456,51412.17814,-250828.0627,45419.62567,-279934.8775,13915.3256,-15707.35743,8987.110994,-57743.76672,38569.85276,-51921.58361,40215.81739,0.067462342,-0.006179245,-0.002861255,0.000654089,0.00821391,-0.001248155,-0.00178815,-0.014853099,0.006083067,-0.008606452,-0.002941482,-0.015726335,0.008295094,-0.005215925,-0.009856026,-0.013696378,-0.014683207,-0.015643355
9,-233,0.35,0.000214,0.000682,0.0265,10000000,29500000,29500000,file://localhost/home/slycat/src/slycat-data/metro-demo/surfaces/run.9.700.vtp,700,-239235.6456,51412.17814,-250828.0627,45419.62567,-279934.8775,13915.3256,-15707.35743,8987.110994,-57743.76672,38569.85276,-51921.58361,40215.81739,0.062163044,0.009468781,-0.001855193,0.00115631,0.006413435,-0.002170505,-0.007035255,-0.017186336,0.000162567,-0.014056053,-0.008258239,-0.017873641,0.005114853,-0.008842412,-0.028209171,-0.017411173,-0.035720588,-0.015702946
9,-233,0.35,0.000214,0.000682,0.0265,10000000,29500000,29500000,file://localhost/home/slycat/src/slycat-data/metro-demo/surfaces/run.9.750.vtp,750,-239235.6456,51412.17814,-250828.0627,45419.62567,-279934.8775,13915.3256,-15707.35743,8987.110994,-57743.76672,38569.85276,-51921.58361,40215.81739,0.051819271,0.026189013,-0.000713359,0.001540927,0.00409157,-0.002169476,-0.011562107,-0.017851398,-0.003554219,-0.015019983,-0.012059053,-0.01794323,0.002503002,-0.008781512,-0.034105171,-0.016245548,-0.045878122,-0.013759964
9,-233,0.35,0.000214,0.000682,0.0265,10000000,29500000,29500000,file://localhost/home/slycat/src/slycat-data/metro-demo/surfaces/run.9.800.vtp,800,-239235.6456,51412.17814,-250828.0627,45419.62567,-279934.8775,13915.3256,-15707.35743,8987.110994,-57743.76672,38569.85276,-51921.58361,40215.81739,0.036633442,0.03797895,0.000292824,0.001289693,0.001651863,-0.001323427,-0.013127985,-0.015721357,-0.004472712,-0.011769016,-0.013051966,-0.0155545,-5.91E-05,-0.007132632,-0.033549163,-0.013439579,-0.04969674,-0.012309415
9,-233,0.35,0.000214,0.000682,0.0265,10000000,29500000,29500000,file://localhost/home/slycat/src/slycat-data/metro-demo/surfaces/run.9.850.vtp,850,-239235.6456,51412.17814,-250828.0627,45419.62567,-279934.8775,13915.3256,-15707.35743,8987.110994,-57743.76672,38569.85276,-51921.58361,40215.81739,0.020441196,0.048820384,0.001152619,0.00099268,-0.000555481,-0.000512005,-0.014791619,-0.0140701,-0.006174217,-0.010125523,-0.015056898,-0.014657322,-0.0023557,-0.005799682,-0.034232551,-0.01105156,-0.051283556,-0.01017673
9,-233,0.35,0.000214,0.000682,0.0265,10000000,29500000,29500000,file://localhost/home/slycat/src/slycat-data/metro-demo/surfaces/run.9.900.vtp,900,-239235.6456,51412.17814,-250828.0627,45419.62567,-279934.8775,13915.3256,-15707.35743,8987.110994,-57743.76672,38569.85276,-51921.58361,40215.81739,0.004674585,0.058521021,0.001864263,0.000653291,-0.002525046,0.000238756,-0.016329599,-0.012554507,-0.007751616,-0.00860076,-0.016753186,-0.013276853,-0.004193993,-0.004606066,-0.035274948,-0.009127397,-0.053721262,-0.00787576
9,-233,0.35,0.000214,0.000682,0.0265,10000000,29500000,29500000,file://localhost/home/slycat/src/slycat-data/metro-demo/surfaces/run.9.950.vtp,950,-239235.6456,51412.17814,-250828.0627,45419.62567,-279934.8775,13915.3256,-15707.35743,8987.110994,-57743.76672,38569.85276,-51921.58361,40215.81739,-0.01053437,0.065971504,0.002452393,0.000120818,-0.004314605,0.001048814,-0.017548104,-0.010903345,-0.009195711,-0.006863738,-0.018030919,-0.011299476,-0.005662766,-0.003646998,-0.034649388,-0.00692675,-0.053585888,-0.005801552
9,-233,0.35,0.000214,0.000682,0.0265,10000000,29500000,29500000,file://localhost/home/slycat/src/slycat-data/metro-demo/surfaces/run.9.1000.vtp,1000,-239235.6456,51412.17814,-250828.0627,45419.62567,-279934.8775,13915.3256,-15707.35743,8987.110994,-57743.76672,38569.85276,-51921.58361,40215.81739,-0.025714441,0.070717329,0.002956307,-0.000449504,-0.00598163,0.001877594,-0.01857901,-0.009473009,-0.010339268,-0.005188202,-0.018929623,-0.009486071,-0.006922343,-0.002529887,-0.034443674,-0.004957433,-0.053318733,-0.004125339
1472,-411,0.5,0.000267,0.0007,0.03,10000000,29500000,29500000,file://localhost/home/slycat/src/slycat-data/metro-demo/surfaces/run.1472.0.vtp,0,-227908.5195,15846.12463,-241396.2986,27604.66465,-284266.27,8401.192674,-17990.96017,8577.634715,-58011.87685,36068.81206,-50480.16335,34303.13046,0.075292741,-0.037285444,-0.0160364,0.00147945,0.029349307,0.001741594,0.016702913,-0.027157124,0.023185709,-0.020703742,0.016099344,-0.027655342,0.025955968,-0.016351766,-0.039562947,-0.044662905,-0.08231376,-0.05398163
1472,-411,0.5,0.000267,0.0007,0.03,10000000,29500000,29500000,file://localhost/home/slycat/src/slycat-data/metro-demo/surfaces/run.1472.50.vtp,50,-227908.5195,15846.12463,-241396.2986,27604.66465,-284266.27,8401.192674,-17990.96017,8577.634715,-58011.87685,36068.81206,-50480.16335,34303.13046,0.073161836,-0.032088069,-0.012954403,0.001620578,0.024973451,0.001232943,0.038264159,-0.00395496,0.025473108,-0.007748221,0.038743916,-0.004423696,0.025987099,-0.002762102,0.040879342,-0.016441211,0.052148117,-0.033503424
1472,-411,0.5,0.000267,0.0007,0.03,10000000,29500000,29500000,file://localhost/home/slycat/src/slycat-data/metro-demo/surfaces/run.1472.100.vtp,100,-227908.5195,15846.12463,-241396.2986,27604.66465,-284266.27,8401.192674,-17990.96017,8577.634715,-58011.87685,36068.81206,-50480.16335,34303.13046,0.070730874,-0.026195005,-0.010375918,-4.33E-05,0.020671215,0.000706447,0.038641001,0.009675704,0.028868166,0.007519893,0.038677064,0.010013741,0.023312119,0.005469544,0.065680681,-0.000686704,0.090711896,-0.004683227
1472,-411,0.5,0.000267,0.0007,0.03,10000000,29500000,29500000,file://localhost/home/slycat/src/slycat-data/metro-demo/surfaces/run.1472.150.vtp,150,-227908.5195,15846.12463,-241396.2986,27604.66465,-284266.27,8401.192674,-17990.96017,8577.634715,-58011.87685,36068.81206,-50480.16335,34303.13046,0.068318742,-0.019357407,-0.007934486,-0.001719484,0.016530524,0.000205747,0.034337424,0.015550731,0.026971165,0.014166936,0.035062247,0.015890767,0.019852492,0.011388251,0.074369418,0.009604018,0.107370158,0.011239357
1472,-411,0.5,0.000267,0.0007,0.03,10000000,29500000,29500000,file://localhost/home/slycat/src/slycat-data/metro-demo/surfaces/run.1472.200.vtp,200,-227908.5195,15846.12463,-241396.2986,27604.66465,-284266.27,8401.192674,-17990.96017,8577.634715,-58011.87685,36068.81206,-50480.16335,34303.13046,0.066678692,-0.01471066,-0.006300654,-0.002342306,0.01353887,-3.11E-05,0.028568475,0.014462492,0.025181995,0.017666065,0.029417057,0.014860142,0.016825359,0.012591126,0.076571174,0.016552738,0.112599308,0.019538023
1472,-411,0.5,0.000267,0.0007,0.03,10000000,29500000,29500000,file://localhost/home/slycat/src/slycat-data/metro-demo/surfaces/run.1472.250.vtp,250,-227908.5195,15846.12463,-241396.2986,27604.66465,-284266.27,8401.192674,-17990.96017,8577.634715,-58011.87685,36068.81206,-50480.16335,34303.13046,0.069360524,-0.013674388,-0.004257534,-6.65E-05,0.010755498,-0.000477309,-0.000166398,-0.016061701,0.006993233,-0.009638838,-0.000627969,-0.016229802,0.009116485,-0.009434537,-0.009970481,-0.016155461,-0.016472847,-0.017249724
1472,-411,0.5,0.000267,0.0007,0.03,10000000,29500000,29500000,file://localhost/home/slycat/src/slycat-data/metro-demo/surfaces/run.1472.300.vtp,300,-227908.5195,15846.12463,-241396.2986,27604.66465,-284266.27,8401.192674,-17990.96017,8577.634715,-58011.87685,36068.81206,-50480.16335,34303.13046,0.065079551,0.001795583,-0.002333294,0.001026124,0.007331536,-0.001906377,-0.004930991,-0.015604763,0.001719897,-0.010676777,-0.00467843,-0.014660842,0.004610944,-0.011948793,-0.040202604,-0.02146987,-0.051307582,-0.019535885
1472,-411,0.5,0.000267,0.0007,0.03,10000000,29500000,29500000,file://localhost/home/slycat/src/slycat-data/metro-demo/surfaces/run.1472.350.vtp,350,-227908.5195,15846.12463,-241396.2986,27604.66465,-284266.27,8401.192674,-17990.96017,8577.634715,-58011.87685,36068.81206,-50480.16335,34303.13046,0.056805,0.021837525,-0.000172521,0.001524598,0.003301241,-0.002939373,-0.011260413,-0.015690539,-0.00449973,-0.013676295,-0.011889212,-0.016050845,0.000847363,-0.009256647,-0.03872958,-0.016508175,-0.058805403,-0.012971791
1472,-411,0.5,0.000267,0.0007,0.03,10000000,29500000,29500000,file://localhost/home/slycat/src/slycat-data/metro-demo/surfaces/run.1472.400.vtp,400,-227908.5195,15846.12463,-241396.2986,27604.66465,-284266.27,8401.192674,-17990.96017,8577.634715,-58011.87685,36068.81206,-50480.16335,34303.13046,0.043655996,0.040105974,0.001635551,0.001045346,-0.000756889,-0.002996931,-0.017503129,-0.016047386,-0.010824915,-0.016376277,-0.017966622,-0.016126662,-0.003327094,-0.007999938,-0.043499867,-0.013284824,-0.052467196,-0.004047082
1472,-411,0.5,0.000267,0.0007,0.03,10000000,29500000,29500000,file://localhost/home/slycat/src/slycat-data/metro-demo/surfaces/run.1472.450.vtp,450,-227908.5195,15846.12463,-241396.2986,27604.66465,-284266.27,8401.192674,-17990.96017,8577.634715,-58011.87685,36068.81206,-50480.16335,34303.13046,0.024417943,0.05302267,0.003310694,0.000263103,-0.004809547,-0.002338529,-0.020350678,-0.012714971,-0.014495306,-0.013838292,-0.020723459,-0.012240722,-0.007079826,-0.005890748,-0.045373733,-0.009216975,-0.055594647,-4.16E-05
1472,-411,0.5,0.000267,0.0007,0.03,10000000,29500000,29500000,file://localhost/home/slycat/src/slycat-data/metro-demo/surfaces/run.1472.500.vtp,500,-227908.5195,15846.12463,-241396.2986,27604.66465,-284266.27,8401.192674,-17990.96017,8577.634715,-58011.87685,36068.81206,-50480.16335,34303.13046,0.002842981,0.063356401,0.004849486,-0.00048129,-0.008748194,-0.001678224,-0.019792545,-0.005632902,-0.014929708,-0.005614747,-0.020967524,-0.006456295,-0.010857569,-0.004041048,-0.046128549,-0.005276224,-0.063242991,-0.002152695
1472,-411,0.5,0.000267,0.0007,0.03,10000000,29500000,29500000,file://localhost/home/slycat/src/slycat-data/metro-demo/surfaces/run.1472.550.vtp,550,-227908.5195,15846.12463,-241396.2986,27604.66465,-284266.27,8401.192674,-17990.96017,8577.634715,-58011.87685,36068.81206,-50480.16335,34303.13046,-0.019142587,0.071459066,0.006283209,-0.001523164,-0.012606448,-0.001374718,-0.020563948,-0.002370566,-0.015393115,0.001610667,-0.020761895,-0.002447051,-0.014706168,-0.00287179,-0.046926367,-0.002030751,-0.058160195,0.000985563
1472,-411,0.5,0.000267,0.0007,0.03,10000000,29500000,29500000,file://localhost/home/slycat/src/slycat-data/metro-demo/surfaces/run.1472.600.vtp,600,-227908.5195,15846.12463,-241396.2986,27604.66465,-284266.27,8401.192674,-17990.96017,8577.634715,-58011.87685,36068.81206,-50480.16335,34303.13046,-0.041730924,0.075290376,0.007819253,-0.001438942,-0.01647729,-0.00122902,-0.023761316,-0.000521708,-0.019303817,0.002387702,-0.023168567,0.000590026,-0.018508418,-0.002043505,-0.046118519,0.001635088,-0.060966971,0.0040427
1472,-411,0.5,0.000267,0.0007,0.03,10000000,29500000,29500000,file://localhost/home/slycat/src/slycat-data/metro-demo/surfaces/run.1472.650.vtp,650,-227908.5195,15846.12463,-241396.2986,27604.66465,-284266.27,8401.192674,-17990.96017,8577.634715,-58011.87685,36068.81206,-50480.16335,34303.13046,-0.064361596,0.075817081,0.009494136,-0.000134011,-0.020393558,-0.001135483,-0.029190893,0.000433928,-0.02622384,-0.002650672,-0.029464427,0.000561285,-0.022435804,-0.002700292,-0.047782482,0.005219819,-0.069344219,0.009983724
1472,-411,0.5,0.000267,0.0007,0.03,10000000,29500000,29500000,file://localhost/home/slycat/src/slycat-data/metro-demo/surfaces/run.1472.700.vtp,700,-227908.5195,15846.12463,-241396.2986,27604.66465,-284266.27,8401.192674,-17990.96017,8577.634715,-58011.87685,36068.81206,-50480.16335,34303.13046,-0.086058002,0.074666659,0.011197458,0.000892902,-0.02432863,-0.001294573,-0.035453053,-0.000625744,-0.032469769,-0.006355017,-0.03580032,-0.000291776,-0.026422385,-0.001919663,-0.049641709,0.009556355,-0.060966592,0.018569183
1472,-411,0.5,0.000267,0.0007,0.03,10000000,29500000,29500000,file://localhost/home/slycat/src/slycat-data/metro-demo/surfaces/run.1472.750.vtp,750,-227908.5195,15846.12463,-241396.2986,27604.66465,-284266.27,8401.192674,-17990.96017,8577.634715,-58011.87685,36068.81206,-50480.16335,34303.13046,-0.107004872,0.072682302,0.012945534,0.001776541,-0.028316387,-0.001556245,-0.038794224,0.001619123,-0.035794258,-0.004614211,-0.038792412,0.002453261,-0.030084518,-0.000563705,-0.051625899,0.012782208,-0.064996182,0.020856789
1472,-411,0.5,0.000267,0.0007,0.03,10000000,29500000,29500000,file://localhost/home/slycat/src/slycat-data/metro-demo/surfaces/run.1472.800.vtp,800,-227908.5195,15846.12463,-241396.2986,27604.66465,-284266.27,8401.192674,-17990.96017,8577.634715,-58011.87685,36068.81206,-50480.16335,34303.13046,-0.127833664,0.071738248,0.014861531,0.001509228,-0.032431663,-0.002168977,-0.039347501,0.005609214,-0.036538717,0.002293704,-0.039703387,0.00581172,-0.033859922,-7.91E-05,-0.052835599,0.015911519,-0.071689317,0.01951113
1472,-411,0.5,0.000267,0.0007,0.03,10000000,29500000,29500000,file://localhost/home/slycat/src/slycat-data/metro-demo/surfaces/run.1472.850.vtp,850,-227908.5195,15846.12463,-241396.2986,27604.66465,-284266.27,8401.192674,-17990.96017,8577.634715,-58011.87685,36068.81206,-50480.16335,34303.13046,-0.148828559,0.071630643,0.016969412,0.000264945,-0.036697371,-0.003113329,-0.040117728,0.009232778,-0.037851605,0.008469943,-0.039510281,0.010357706,-0.038109304,-2.59E-05,-0.054368202,0.019365734,-0.067171079,0.020862108
1472,-411,0.5,0.000267,0.0007,0.03,10000000,29500000,29500000,file://localhost/home/slycat/src/slycat-data/metro-demo/surfaces/run.1472.900.vtp,900,-227908.5195,15846.12463,-241396.2986,27604.66465,-284266.27,8401.192674,-17990.96017,8577.634715,-58011.87685,36068.81206,-50480.16335,34303.13046,-0.169980332,0.070609941,0.019342872,-0.000302965,-0.041141459,-0.003833198,-0.04275483,0.01291613,-0.042082792,0.009338482,-0.042113723,0.014428137,-0.042515446,-0.000455181,-0.055508407,0.022685402,-0.071903715,0.024026405
1472,-411,0.5,0.000267,0.0007,0.03,10000000,29500000,29500000,file://localhost/home/slycat/src/slycat-data/metro-demo/surfaces/run.1472.950.vtp,950,-227908.5195,15846.12463,-241396.2986,27604.66465,-284266.27,8401.192674,-17990.96017,8577.634715,-58011.87685,36068.81206,-50480.16335,34303.13046,-0.190712193,0.066581074,0.02200189,0.000358742,-0.045814085,-0.004851199,-0.049093294,0.013273729,-0.049116985,0.005294109,-0.048825596,0.014381001,-0.047118401,-4.93E-05,-0.056863484,0.027533631,-0.076746235,0.031547021
1472,-411,0.5,0.000267,0.0007,0.03,10000000,29500000,29500000,file://localhost/home/slycat/src/slycat-data/metro-demo/surfaces/run.1472.1000.vtp,1000,-227908.5195,15846.12463,-241396.2986,27604.66465,-284266.27,8401.192674,-17990.96017,8577.634715,-58011.87685,36068.81206,-50480.16335,34303.13046,-0.210575298,0.060216104,0.024863125,0.001314215,-0.050778422,-0.006251254,-0.056518645,0.012538649,-0.056380143,0.001468858,-0.056463968,0.01332813,-0.052085756,0.001049139,-0.057994406,0.03345409,-0.070565959,0.040881996
8780,-144,0.3,0.000232,0.000682,0.0335,10000000,30500000,29500000,file://localhost/home/slycat/src/slycat-data/metro-demo/surfaces/run.8780.0.vtp,0,-240812.694,0,-249676.8633,0,-283047.6939,0,-9310.590958,0,-60230.66692,37211.27243,-53709.01877,37055.53117,0.075292741,-0.037285444,-0.0160364,0.00147945,0.029349307,0.001741594,0.016702913,-0.027157124,0.023185709,-0.020703742,0.016099344,-0.027655342,0.025955968,-0.016351766,-0.039562947,-0.044662905,-0.08231376,-0.05398163
8780,-144,0.3,0.000232,0.000682,0.0335,10000000,30500000,29500000,file://localhost/home/slycat/src/slycat-data/metro-demo/surfaces/run.8780.50.vtp,50,-240812.694,0,-249676.8633,0,-283047.6939,0,-9310.590958,0,-60230.66692,37211.27243,-53709.01877,37055.53117,0.074736447,-0.035644553,-0.014911494,0.001835182,0.027820906,0.001561902,0.022811077,-0.02111616,0.022849259,-0.017943084,0.022626103,-0.021627856,0.025983946,-0.011912971,-0.008912304,-0.036379142,-0.0271093,-0.050264586
8780,-144,0.3,0.000232,0.000682,0.0335,10000000,30500000,29500000,file://localhost/home/slycat/src/slycat-data/metro-demo/surfaces/run.8780.100.vtp,100,-240812.694,0,-249676.8633,0,-283047.6939,0,-9310.590958,0,-60230.66692,37211.27243,-53709.01877,37055.53117,0.073813207,-0.033693415,-0.013819158,0.00182488,0.026275194,0.001382156,0.032940962,-0.011485555,0.022995066,-0.014314595,0.033374971,-0.01197634,0.02611689,-0.007238919,0.017045597,-0.026992114,0.016344363,-0.044874423
8780,-144,0.3,0.000232,0.000682,0.0335,10000000,30500000,29500000,file://localhost/home/slycat/src/slycat-data/metro-demo/surfaces/run.8780.150.vtp,150,-240812.694,0,-249676.8633,0,-283047.6939,0,-9310.590958,0,-60230.66692,37211.27243,-53709.01877,37055.53117,0.072865948,-0.031710106,-0.012849715,0.001492122,0.024787133,0.001212812,0.038789338,-0.003305929,0.025198782,-0.007671351,0.039353749,-0.003689302,0.025829648,-0.002794025,0.039170624,-0.016981292,0.04968686,-0.03343492
8780,-144,0.3,0.000232,0.000682,0.0335,10000000,30500000,29500000,file://localhost/home/slycat/src/slycat-data/metro-demo/surfaces/run.8780.200.vtp,200,-240812.694,0,-249676.8633,0,-283047.6939,0,-9310.590958,0,-60230.66692,37211.27243,-53709.01877,37055.53117,0.072335784,-0.030089596,-0.012011522,0.001067477,0.023424593,0.001053031,0.040322963,0.002308728,0.027645435,-0.001127993,0.040908141,0.002064589,0.025261552,0.000633878,0.049711624,-0.01127702,0.066077435,-0.023559293
8780,-144,0.3,0.000232,0.000682,0.0335,10000000,30500000,29500000,file://localhost/home/slycat/src/slycat-data/metro-demo/surfaces/run.8780.250.vtp,250,-240812.694,0,-249676.8633,0,-283047.6939,0,-9310.590958,0,-60230.66692,37211.27243,-53709.01877,37055.53117,0.07145766,-0.028080768,-0.011208984,0.000467412,0.022053026,0.000868388,0.04009594,0.006686776,0.028191733,0.00309637,0.040535176,0.006529003,0.024311753,0.003180847,0.062126211,-0.003408675,0.083816053,-0.01091579
8780,-144,0.3,0.000232,0.000682,0.0335,10000000,30500000,29500000,file://localhost/home/slycat/src/slycat-data/metro-demo/surfaces/run.8780.300.vtp,300,-240812.694,0,-249676.8633,0,-283047.6939,0,-9310.590958,0,-60230.66692,37211.27243,-53709.01877,37055.53117,0.070998204,-0.026539034,-0.010460985,8.69E-05,0.020837291,0.000721851,0.038700881,0.009501009,0.028894839,0.007064695,0.039119162,0.009581531,0.023489865,0.005307559,0.066153583,-0.000190935,0.090429167,-0.003476579
8780,-144,0.3,0.000232,0.000682,0.0335,10000000,30500000,29500000,file://localhost/home/slycat/src/slycat-data/metro-demo/surfaces/run.8780.350.vtp,350,-240812.694,0,-249676.8633,0,-283047.6939,0,-9310.590958,0,-60230.66692,37211.27243,-53709.01877,37055.53117,0.07065227,-0.025178539,-0.009738323,-0.000249472,0.019674796,0.000602187,0.037030979,0.011213628,0.02903616,0.010234888,0.037650064,0.011374169,0.022539913,0.006908729,0.066778044,0.001418431,0.092084914,0.000245681
8780,-144,0.3,0.000232,0.000682,0.0335,10000000,30500000,29500000,file://localhost/home/slycat/src/slycat-data/metro-demo/surfaces/run.8780.400.vtp,400,-240812.694,0,-249676.8633,0,-283047.6939,0,-9310.590958,0,-60230.66692,37211.27243,-53709.01877,37055.53117,0.069925636,-0.023546678,-0.009365071,-0.000897291,0.018885913,0.000587862,0.037550796,0.013315935,0.028509369,0.011090471,0.037933961,0.013357599,0.02179534,0.007774236,0.069625697,0.004337448,0.096721925,0.003926762
8780,-144,0.3,0.000232,0.000682,0.0335,10000000,30500000,29500000,file://localhost/home/slycat/src/slycat-data/metro-demo/surfaces/run.8780.450.vtp,450,-240812.694,0,-249676.8633,0,-283047.6939,0,-9310.590958,0,-60230.66692,37211.27243,-53709.01877,37055.53117,0.069371122,-0.02210448,-0.008906282,-0.001280787,0.018061994,0.00050476,0.036911952,0.014810713,0.028096038,0.012340419,0.037356299,0.014787847,0.021148372,0.009002101,0.072674767,0.007075457,0.102891895,0.007766392
8780,-144,0.3,0.000232,0.000682,0.0335,10000000,30500000,29500000,file://localhost/home/slycat/src/slycat-data/metro-demo/surfaces/run.8780.500.vtp,500,-240812.694,0,-249676.8633,0,-283047.6939,0,-9310.590958,0,-60230.66692,37211.27243,-53709.01877,37055.53117,0.068988964,-0.020933465,-0.00851983,-0.001587476,0.017381866,0.000450668,0.035965917,0.015462632,0.027717884,0.013228612,0.036557045,0.015506478,0.020640774,0.010094601,0.074203895,0.008752716,0.106209838,0.010084854
8780,-144,0.3,0.000232,0.000682,0.0335,10000000,30500000,29500000,file://localhost/home/slycat/src/slycat-data/metro-demo/surfaces/run.8780.550.vtp,550,-240812.694,0,-249676.8633,0,-283047.6939,0,-9310.590958,0,-60230.66692,37211.27243,-53709.01877,37055.53117,0.068680861,-0.020178376,-0.008190819,-0.001842733,0.01679383,0.000427395,0.035309693,0.0160285,0.027555729,0.014095672,0.035849557,0.01599984,0.020212074,0.011674248,0.07453353,0.009882624,0.107421283,0.011430779
8780,-144,0.3,0.000232,0.000682,0.0335,10000000,30500000,29500000,file://localhost/home/slycat/src/slycat-data/metro-demo/surfaces/run.8780.600.vtp,600,-240812.694,0,-249676.8633,0,-283047.6939,0,-9310.590958,0,-60230.66692,37211.27243,-53709.01877,37055.53117,0.068414411,-0.019421043,-0.007898142,-0.002045444,0.016275909,0.000391601,0.034424474,0.0159693,0.027189264,0.014777879,0.034910928,0.016085005,0.019692272,0.011790068,0.074334047,0.010699194,0.107704322,0.012256386
8780,-144,0.3,0.000232,0.000682,0.0335,10000000,30500000,29500000,file://localhost/home/slycat/src/slycat-data/metro-demo/surfaces/run.8780.650.vtp,650,-240812.694,0,-249676.8633,0,-283047.6939,0,-9310.590958,0,-60230.66692,37211.27243,-53709.01877,37055.53117,0.068221518,-0.01876603,-0.007629615,-0.00218271,0.015822283,0.0003433,0.033629149,0.015674907,0.026846484,0.015266837,0.034077856,0.015812412,0.019144042,0.011816194,0.073779492,0.011180082,0.107248056,0.013081091
8780,-144,0.3,0.000232,0.000682,0.0335,10000000,30500000,29500000,file://localhost/home/slycat/src/slycat-data/metro-demo/surfaces/run.8780.700.vtp,700,-240812.694,0,-249676.8633,0,-283047.6939,0,-9310.590958,0,-60230.66692,37211.27243,-53709.01877,37055.53117,0.068104201,-0.018289547,-0.007409866,-0.002201054,0.015441445,0.000309976,0.03261046,0.015632167,0.026585227,0.01560915,0.033203658,0.015698743,0.018735927,0.011882362,0.072589008,0.011281454,0.105708012,0.013459264
8780,-144,0.3,0.000232,0.000682,0.0335,10000000,30500000,29500000,file://localhost/home/slycat/src/slycat-data/metro-demo/surfaces/run.8780.750.vtp,750,-240812.694,0,-249676.8633,0,-283047.6939,0,-9310.590958,0,-60230.66692,37211.27243,-53709.01877,37055.53117,0.068073487,-0.01784796,-0.007333744,-0.002170924,0.015291816,0.000298933,0.031526596,0.01475947,0.02670747,0.015546379,0.032316257,0.014545132,0.018528438,0.01125592,0.07039955,0.010481402,0.102790543,0.012066411
8780,-144,0.3,0.000232,0.000682,0.0335,10000000,30500000,29500000,file://localhost/home/slycat/src/slycat-data/metro-demo/surfaces/run.8780.800.vtp,800,-240812.694,0,-249676.8633,0,-283047.6939,0,-9310.590958,0,-60230.66692,37211.27243,-53709.01877,37055.53117,0.067960419,-0.017072653,-0.007167244,-0.002111658,0.015024907,0.000225327,0.030984929,0.014675994,0.026290897,0.015695647,0.03170994,0.014480707,0.018117253,0.010938125,0.069495623,0.010605641,0.101509066,0.01272686
8780,-144,0.3,0.000232,0.000682,0.0335,10000000,30500000,29500000,file://localhost/home/slycat/src/slycat-data/metro-demo/surfaces/run.8780.850.vtp,850,-240812.694,0,-249676.8633,0,-283047.6939,0,-9310.590958,0,-60230.66692,37211.27243,-53709.01877,37055.53117,0.067885249,-0.016563674,-0.007062615,-0.002065165,0.014865453,0.000173827,0.030765645,0.014580859,0.02606138,0.015797254,0.031470614,0.014463605,0.017881439,0.010761638,0.06868609,0.010420312,0.10033053,0.012749402
8780,-144,0.3,0.000232,0.000682,0.0335,10000000,30500000,29500000,file://localhost/home/slycat/src/slycat-data/metro-demo/surfaces/run.8780.900.vtp,900,-240812.694,0,-249676.8633,0,-283047.6939,0,-9310.590958,0,-60230.66692,37211.27243,-53709.01877,37055.53117,0.067875465,-0.016425205,-0.007034071,-0.00205065,0.014822362,0.000159091,0.030643941,0.014504376,0.02590487,0.015612463,0.03142523,0.014469944,0.0177915,0.010712785,0.068388609,0.010405986,0.099949205,0.012757015
8780,-144,0.3,0.000232,0.000682,0.0335,10000000,30500000,29500000,file://localhost/home/slycat/src/slycat-data/metro-demo/surfaces/run.8780.950.vtp,950,-240812.694,0,-249676.8633,0,-283047.6939,0,-9310.590958,0,-60230.66692,37211.27243,-53709.01877,37055.53117,0.067981516,-0.016557731,-0.007062966,-0.002019735,0.014886056,0.000160249,0.030123877,0.013854586,0.025728395,0.015195665,0.030866675,0.013752116,0.017761114,0.010358449,0.066554781,0.009429616,0.096907727,0.011603747
8780,-144,0.3,0.000232,0.000682,0.0335,10000000,30500000,29500000,file://localhost/home/slycat/src/slycat-data/metro-demo/surfaces/run.8780.1000.vtp,1000,-240812.694,0,-249676.8633,0,-283047.6939,0,-9310.590958,0,-60230.66692,37211.27243,-53709.01877,37055.53117,0.068197741,-0.016695997,-0.007132402,-0.001962242,0.015031555,0.000161258,0.02905364,0.012403514,0.025411717,0.01433572,0.029747511,0.012264097,0.017663036,0.009523167,0.062602209,0.007446343,0.090431125,0.008853317
9061,-500,0.4,0.000249,0.000717,0.0335,10000000,30500000,29500000,file://localhost/home/slycat/src/slycat-data/metro-demo/surfaces/run.9061.0.vtp,0,-227080.4591,32617.6173,-244274.4695,26141.36334,-279262.9978,12475.95814,-12211.43276,15234.4489,-58231.04961,70718.80315,-51314.70035,36010.09322,0.075292741,-0.037285444,-0.0160364,0.00147945,0.029349307,0.001741594,0.016702913,-0.027157124,0.023185709,-0.020703742,0.016099344,-0.027655342,0.025955968,-0.016351766,-0.039562947,-0.044662905,-0.08231376,-0.05398163
9061,-500,0.4,0.000249,0.000717,0.0335,10000000,30500000,29500000,file://localhost/home/slycat/src/slycat-data/metro-demo/surfaces/run.9061.50.vtp,50,-227080.4591,32617.6173,-244274.4695,26141.36334,-279262.9978,12475.95814,-12211.43276,15234.4489,-58231.04961,70718.80315,-51314.70035,36010.09322,0.072846451,-0.031028357,-0.012376598,0.001406364,0.02405965,0.001120424,0.03937721,6.17E-05,0.027565129,-0.002714474,0.039950401,-0.000343009,0.025668574,-0.000565775,0.046744902,-0.013062605,0.061097282,-0.027252377
9061,-500,0.4,0.000249,0.000717,0.0335,10000000,30500000,29500000,file://localhost/home/slycat/src/slycat-data/metro-demo/surfaces/run.9061.100.vtp,100,-227080.4591,32617.6173,-244274.4695,26141.36334,-279262.9978,12475.95814,-12211.43276,15234.4489,-58231.04961,70718.80315,-51314.70035,36010.09322,0.070647544,-0.024104635,-0.009235753,-0.00043299,0.018882268,0.000463212,0.035792832,0.01129139,0.028632438,0.011255841,0.036349932,0.011460467,0.022112801,0.009373009,0.08212266,0.010969388,0.115962666,0.01006547
9061,-500,0.4,0.000249,0.000717,0.0335,10000000,30500000,29500000,file://localhost/home/slycat/src/slycat-data/metro-demo/surfaces/run.9061.150.vtp,150,-227080.4591,32617.6173,-244274.4695,26141.36334,-279262.9978,12475.95814,-12211.43276,15234.4489,-58231.04961,70718.80315,-51314.70035,36010.09322,0.067360117,-0.013417059,-0.006696674,-0.001899375,0.014431389,-0.000175236,0.026646955,0.01082077,0.026228215,0.017382059,0.0273146,0.010823979,0.017850114,0.013463929,0.079522895,0.016871473,0.116442835,0.019060462
9061,-500,0.4,0.000249,0.000717,0.0335,10000000,30500000,29500000,file://localhost/home/slycat/src/slycat-data/metro-demo/surfaces/run.9061.200.vtp,200,-227080.4591,32617.6173,-244274.4695,26141.36334,-279262.9978,12475.95814,-12211.43276,15234.4489,-58231.04961,70718.80315,-51314.70035,36010.09322,0.066495709,-0.012242765,-0.004617221,-0.001772399,0.010774651,-0.000235797,0.015687764,0.002506657,0.020478651,0.01492323,0.016138532,0.002922427,0.012110709,0.00228394,0.047621839,0.006591195,0.072672143,0.005791422
9061,-500,0.4,0.000249,0.000717,0.0335,10000000,30500000,29500000,file://localhost/home/slycat/src/slycat-data/metro-demo/surfaces/run.9061.250.vtp,250,-227080.4591,32617.6173,-244274.4695,26141.36334,-279262.9978,12475.95814,-12211.43276,15234.4489,-58231.04961,70718.80315,-51314.70035,36010.09322,0.063991038,0.004631562,-0.001998034,0.000681271,0.006631924,-0.002156736,-0.0059925,-0.01598151,0.002367761,-0.009057392,-0.008188924,-0.018002351,0.005584223,-0.005485436,-0.014704325,-0.012713331,-0.023763958,-0.014917569
9061,-500,0.4,0.000249,0.000717,0.0335,10000000,30500000,29500000,file://localhost/home/slycat/src/slycat-data/metro-demo/surfaces/run.9061.300.vtp,300,-227080.4591,32617.6173,-244274.4695,26141.36334,-279262.9978,12475.95814,-12211.43276,15234.4489,-58231.04961,70718.80315,-51314.70035,36010.09322,0.057073201,0.023703809,0.000258913,0.001364346,0.002402286,-0.003294318,-0.015405583,-0.0187121,-0.007562153,-0.017523462,-0.016623741,-0.019561511,0.000433259,-0.008959871,-0.040972672,-0.016050378,-0.044795853,-0.008123974
9061,-500,0.4,0.000249,0.000717,0.0335,10000000,30500000,29500000,file://localhost/home/slycat/src/slycat-data/metro-demo/surfaces/run.9061.350.vtp,350,-227080.4591,32617.6173,-244274.4695,26141.36334,-279262.9978,12475.95814,-12211.43276,15234.4489,-58231.04961,70718.80315,-51314.70035,36010.09322,0.042604013,0.04181176,0.002407801,0.000214638,-0.00227059,-0.003130297,-0.01735569,-0.013356224,-0.011934215,-0.014431352,-0.018623427,-0.014425664,-0.004713657,-0.007109074,-0.043610725,-0.011435444,-0.057157979,-0.003351915
9061,-500,0.4,0.000249,0.000717,0.0335,10000000,30500000,29500000,file://localhost/home/slycat/src/slycat-data/metro-demo/surfaces/run.9061.400.vtp,400,-227080.4591,32617.6173,-244274.4695,26141.36334,-279262.9978,12475.95814,-12211.43276,15234.4489,-58231.04961,70718.80315,-51314.70035,36010.09322,0.024411026,0.055225915,0.004390481,-0.00048826,-0.007013329,-0.00319708,-0.020200753,-0.008818159,-0.014632041,-0.008962979,-0.020910641,-0.009287315,-0.009153226,-0.004544613,-0.042618953,-0.006110187,-0.050536939,0.000222027
9061,-500,0.4,0.000249,0.000717,0.0335,10000000,30500000,29500000,file://localhost/home/slycat/src/slycat-data/metro-demo/surfaces/run.9061.450.vtp,450,-227080.4591,32617.6173,-244274.4695,26141.36334,-279262.9978,12475.95814,-12211.43276,15234.4489,-58231.04961,70718.80315,-51314.70035,36010.09322,-0.002523783,0.064695156,0.006299754,-0.000859812,-0.012084495,-0.002453934,-0.024090872,-0.007385921,-0.018592721,-0.005333001,-0.024715987,-0.007780978,-0.014079183,-0.003176664,-0.0451305,-0.002569011,-0.060802433,0.002761455
9061,-500,0.4,0.000249,0.000717,0.0335,10000000,30500000,29500000,file://localhost/home/slycat/src/slycat-data/metro-demo/surfaces/run.9061.500.vtp,500,-227080.4591,32617.6173,-244274.4695,26141.36334,-279262.9978,12475.95814,-12211.43276,15234.4489,-58231.04961,70718.80315,-51314.70035,36010.09322,-0.032097249,0.066096493,0.008324393,-0.00080921,-0.01716385,-0.002067856,-0.026574854,-0.002002508,-0.022815401,-0.0027367,-0.026843698,-0.002614138,-0.018161777,-0.003234306,-0.045382426,0.00265152,-0.061513299,0.006071088
9061,-500,0.4,0.000249,0.000717,0.0335,10000000,30500000,29500000,file://localhost/home/slycat/src/slycat-data/metro-demo/surfaces/run.9061.550.vtp,550,-227080.4591,32617.6173,-244274.4695,26141.36334,-279262.9978,12475.95814,-12211.43276,15234.4489,-58231.04961,70718.80315,-51314.70035,36010.09322,-0.06296792,0.056340884,0.010392878,8.15E-05,-0.022124117,-0.001529324,-0.030932631,0.000583241,-0.027559091,-0.004314245,-0.031253729,0.0007156,-0.023989028,-0.00190846,-0.049045088,0.006982575,-0.059545481,0.013412351
9061,-500,0.4,0.000249,0.000717,0.0335,10000000,30500000,29500000,file://localhost/home/slycat/src/slycat-data/metro-demo/surfaces/run.9061.600.vtp,600,-227080.4591,32617.6173,-244274.4695,26141.36334,-279262.9978,12475.95814,-12211.43276,15234.4489,-58231.04961,70718.80315,-51314.70035,36010.09322,-0.092894418,0.040270082,0.012583336,0.001368048,-0.027059339,-0.001441215,-0.036855352,0.001524246,-0.034128583,-0.003939328,-0.037063132,0.002325646,-0.028796881,-1.71E-06,-0.0520272,0.011741745,-0.067893039,0.018029731
9061,-500,0.4,0.000249,0.000717,0.0335,10000000,30500000,29500000,file://localhost/home/slycat/src/slycat-data/metro-demo/surfaces/run.9061.650.vtp,650,-227080.4591,32617.6173,-244274.4695,26141.36334,-279262.9978,12475.95814,-12211.43276,15234.4489,-58231.04961,70718.80315,-51314.70035,36010.09322,-0.121912024,0.013749045,0.015069811,0.001592573,-0.032246127,-0.001629427,-0.042890394,0.001143959,-0.039108611,-0.003213228,-0.043014327,0.001981038,-0.033906051,-0.000175196,-0.052763281,0.016159558,-0.064900181,0.02396122
9061,-500,0.4,0.000249,0.000717,0.0335,10000000,30500000,29500000,file://localhost/home/slycat/src/slycat-data/metro-demo/surfaces/run.9061.700.vtp,700,-227080.4591,32617.6173,-244274.4695,26141.36334,-279262.9978,12475.95814,-12211.43276,15234.4489,-58231.04961,70718.80315,-51314.70035,36010.09322,-0.14693577,-0.015289913,0.017810951,0.001092469,-0.037581582,-0.001872062,-0.045559877,0.005077647,-0.043358293,-0.000202547,-0.045901358,0.005562854,-0.039198385,-0.000188407,-0.054023086,0.019682239,-0.063044514,0.028039692
9061,-500,0.4,0.000249,0.000717,0.0335,10000000,30500000,29500000,file://localhost/home/slycat/src/slycat-data/metro-demo/surfaces/run.9061.750.vtp,750,-227080.4591,32617.6173,-244274.4695,26141.36334,-279262.9978,12475.95814,-12211.43276,15234.4489,-58231.04961,70718.80315,-51314.70035,36010.09322,-0.179031334,-0.033198919,0.020850145,-0.000411763,-0.043191563,-0.002583482,-0.047397016,0.011909059,-0.047153484,0.004238839,-0.047151603,0.012846612,-0.044481938,0.000806,-0.055914006,0.025511441,-0.074490799,0.030316149
9061,-500,0.4,0.000249,0.000717,0.0335,10000000,30500000,29500000,file://localhost/home/slycat/src/slycat-data/metro-demo/surfaces/run.9061.800.vtp,800,-227080.4591,32617.6173,-244274.4695,26141.36334,-279262.9978,12475.95814,-12211.43276,15234.4489,-58231.04961,70718.80315,-51314.70035,36010.09322,-0.204356427,-0.060525775,0.024199623,-0.001248984,-0.049163892,-0.003478415,-0.050710225,0.016743789,-0.05137113,0.008647805,-0.050373598,0.017837703,-0.050279612,0.003240588,-0.059088711,0.03206179,-0.071085338,0.035816903
9061,-500,0.4,0.000249,0.000717,0.0335,10000000,30500000,29500000,file://localhost/home/slycat/src/slycat-data/metro-demo/surfaces/run.9061.850.vtp,850,-227080.4591,32617.6173,-244274.4695,26141.36334,-279262.9978,12475.95814,-12211.43276,15234.4489,-58231.04961,70718.80315,-51314.70035,36010.09322,-0.229110226,-0.100753635,0.028072314,-0.000673649,-0.055678,-0.004179823,-0.057301382,0.018664894,-0.057272861,0.010508799,-0.057285664,0.019382596,-0.056557299,0.003998511,-0.060567293,0.037608251,-0.069578934,0.040587112
9061,-500,0.4,0.000249,0.000717,0.0335,10000000,30500000,29500000,file://localhost/home/slycat/src/slycat-data/metro-demo/surfaces/run.9061.900.vtp,900,-227080.4591,32617.6173,-244274.4695,26141.36334,-279262.9978,12475.95814,-12211.43276,15234.4489,-58231.04961,70718.80315,-51314.70035,36010.09322,-0.249256547,-0.132673864,0.032647974,0.00072695,-0.06277335,-0.005978746,-0.064282311,0.018773465,-0.064363761,0.010880952,-0.064561142,0.019219544,-0.063489902,0.00336372,-0.062449735,0.043406376,-0.075650004,0.048211644
9061,-500,0.4,0.000249,0.000717,0.0335,10000000,30500000,29500000,file://localhost/home/slycat/src/slycat-data/metro-demo/surfaces/run.9061.950.vtp,950,-227080.4591,32617.6173,-244274.4695,26141.36334,-279262.9978,12475.95814,-12211.43276,15234.4489,-58231.04961,70718.80315,-51314.70035,36010.09322,-0.265314024,-0.164821351,0.037800217,0.001674275,-0.070582428,-0.007957676,-0.070583376,0.023260715,-0.072568605,0.010579353,-0.070837351,0.023765053,-0.0711713,0.002486038,-0.062851546,0.050536468,-0.072318129,0.055022343
9061,-500,0.4,0.000249,0.000717,0.0335,10000000,30500000,29500000,file://localhost/home/slycat/src/slycat-data/metro-demo/surfaces/run.9061.1000.vtp,1000,-227080.4591,32617.6173,-244274.4695,26141.36334,-279262.9978,12475.95814,-12211.43276,15234.4489,-58231.04961,70718.80315,-51314.70035,36010.09322,-0.282912026,-0.199582991,0.043979001,-0.008241734,-0.079050041,-0.009485404,-0.061322173,0.046798667,-0.068591139,0.035064091,-0.060005164,0.048319041,-0.079020345,0.004983151,-0.062602381,0.058922083,-0.06531536,0.0585367
9413,-322,0.4,0.000232,0.000682,0.0265,10400000,30500000,29500000,file://localhost/home/slycat/src/slycat-data/metro-demo/surfaces/run.9413.0.vtp,0,-239442.3813,31700.57729,-253173.0186,23439.91697,-289519.8344,13861.48271,-11258.15169,8984.252699,-59996.28478,34201.06575,-53104.44466,33209.55334,0.075292741,-0.037285444,-0.0160364,0.00147945,0.029349307,0.001741594,0.016702913,-0.027157124,0.023185709,-0.020703742,0.016099344,-0.027655342,0.025955968,-0.016351766,-0.039562947,-0.044662905,-0.08231376,-0.05398163
9413,-322,0.4,0.000232,0.000682,0.0265,10400000,30500000,29500000,file://localhost/home/slycat/src/slycat-data/metro-demo/surfaces/run.9413.50.vtp,50,-239442.3813,31700.57729,-253173.0186,23439.91697,-289519.8344,13861.48271,-11258.15169,8984.252699,-59996.28478,34201.06575,-53104.44466,33209.55334,0.073863932,-0.03349679,-0.013597003,0.00185769,0.025952522,0.001357495,0.035113186,-0.008960582,0.023789518,-0.012469733,0.035549686,-0.009482225,0.026286968,-0.005527868,0.02688385,-0.023037391,0.031055847,-0.041806375
9413,-322,0.4,0.000232,0.000682,0.0265,10400000,30500000,29500000,file://localhost/home/slycat/src/slycat-data/metro-demo/surfaces/run.9413.100.vtp,100,-239442.3813,31700.57729,-253173.0186,23439.91697,-289519.8344,13861.48271,-11258.15169,8984.252699,-59996.28478,34201.06575,-53104.44466,33209.55334,0.072413416,-0.029288506,-0.011498121,0.000967738,0.022637231,0.000929811,0.039999838,0.004515304,0.028628474,0.00232269,0.040434814,0.004295352,0.024942476,0.002862607,0.063074003,-0.003819723,0.084781491,-0.013270573
9413,-322,0.4,0.000232,0.000682,0.0265,10400000,30500000,29500000,file://localhost/home/slycat/src/slycat-data/metro-demo/surfaces/run.9413.150.vtp,150,-239442.3813,31700.57729,-253173.0186,23439.91697,-289519.8344,13861.48271,-11258.15169,8984.252699,-59996.28478,34201.06575,-53104.44466,33209.55334,0.070905883,-0.025119309,-0.009557665,-0.000192111,0.019424961,0.000565573,0.037630613,0.011874394,0.028823171,0.010309323,0.03832372,0.012107731,0.022467583,0.008217914,0.073922705,0.005565007,0.101650212,0.004427536
9413,-322,0.4,0.000232,0.000682,0.0265,10400000,30500000,29500000,file://localhost/home/slycat/src/slycat-data/metro-demo/surfaces/run.9413.200.vtp,200,-239442.3813,31700.57729,-253173.0186,23439.91697,-289519.8344,13861.48271,-11258.15169,8984.252699,-59996.28478,34201.06575,-53104.44466,33209.55334,0.068839157,-0.019586648,-0.007841969,-0.001558198,0.016433126,0.000233251,0.034297006,0.015717215,0.02719767,0.014761301,0.035098143,0.015914834,0.01983184,0.01194159,0.076619929,0.010930525,0.110231764,0.012988721
9413,-322,0.4,0.000232,0.000682,0.0265,10400000,30500000,29500000,file://localhost/home/slycat/src/slycat-data/metro-demo/surfaces/run.9413.250.vtp,250,-239442.3813,31700.57729,-253173.0186,23439.91697,-289519.8344,13861.48271,-11258.15169,8984.252699,-59996.28478,34201.06575,-53104.44466,33209.55334,0.067485535,-0.015675086,-0.006674005,-0.002099497,0.014264661,5.78E-05,0.029823187,0.014566356,0.026085349,0.017501567,0.030478966,0.014610052,0.017391049,0.012040644,0.075332779,0.014633573,0.109970201,0.017584237
9413,-322,0.4,0.000232,0.000682,0.0265,10400000,30500000,29500000,file://localhost/home/slycat/src/slycat-data/metro-demo/surfaces/run.9413.300.vtp,300,-239442.3813,31700.57729,-253173.0186,23439.91697,-289519.8344,13861.48271,-11258.15169,8984.252699,-59996.28478,34201.06575,-53104.44466,33209.55334,0.066141747,-0.012178687,-0.005521143,-0.002240244,0.012154341,-0.000201227,0.026239914,0.014084837,0.023990873,0.018087006,0.027038888,0.014231526,0.015060967,0.010422231,0.07184189,0.015875698,0.106129996,0.01934696
9413,-322,0.4,0.000232,0.000682,0.0265,10400000,30500000,29500000,file://localhost/home/slycat/src/slycat-data/metro-demo/surfaces/run.9413.350.vtp,350,-239442.3813,31700.57729,-253173.0186,23439.91697,-289519.8344,13861.48271,-11258.15169,8984.252699,-59996.28478,34201.06575,-53104.44466,33209.55334,0.069764282,-0.012809747,-0.004136856,0.000499818,0.010518739,-0.000554068,-0.000464587,-0.016093294,0.008198734,-0.007441517,-0.001369208,-0.017262195,0.010504008,-0.004750859,0.008023259,-0.009702988,0.009405568,-0.01306187
9413,-322,0.4,0.000232,0.000682,0.0265,10400000,30500000,29500000,file://localhost/home/slycat/src/slycat-data/metro-demo/surfaces/run.9413.400.vtp,400,-239442.3813,31700.57729,-253173.0186,23439.91697,-289519.8344,13861.48271,-11258.15169,8984.252699,-59996.28478,34201.06575,-53104.44466,33209.55334,0.067308837,-0.007196279,-0.003069516,0.000260653,0.008418606,-0.00101691,-0.001280617,-0.014942774,0.007485881,-0.005191194,-0.00144978,-0.014522631,0.009756879,-0.001289712,0.007958072,-0.007581212,0.011624385,-0.014203542
9413,-322,0.4,0.000232,0.000682,0.0265,10400000,30500000,29500000,file://localhost/home/slycat/src/slycat-data/metro-demo/surfaces/run.9413.450.vtp,450,-239442.3813,31700.57729,-253173.0186,23439.91697,-289519.8344,13861.48271,-11258.15169,8984.252699,-59996.28478,34201.06575,-53104.44466,33209.55334,0.06476524,0.003910583,-0.00164282,0.001062544,0.006025767,-0.002018413,-0.010215776,-0.020462545,-8.75E-05,-0.014277594,-0.011256478,-0.020360404,0.005522237,-0.006206519,-0.01921263,-0.013288405,-0.02983641,-0.015739574
9413,-322,0.4,0.000232,0.000682,0.0265,10400000,30500000,29500000,file://localhost/home/slycat/src/slycat-data/metro-demo/surfaces/run.9413.500.vtp,500,-239442.3813,31700.57729,-253173.0186,23439.91697,-289519.8344,13861.48271,-11258.15169,8984.252699,-59996.28478,34201.06575,-53104.44466,33209.55334,0.061291444,0.014841279,-0.000257912,0.001136831,0.00350458,-0.002988535,-0.012745977,-0.018860186,-0.00391477,-0.015520005,-0.014142426,-0.019557266,0.002583135,-0.007744588,-0.032459053,-0.014714878,-0.046812409,-0.013125484
9413,-322,0.4,0.000232,0.000682,0.0265,10400000,30500000,29500000,file://localhost/home/slycat/src/slycat-data/metro-demo/surfaces/run.9413.550.vtp,550,-239442.3813,31700.57729,-253173.0186,23439.91697,-289519.8344,13861.48271,-11258.15169,8984.252699,-59996.28478,34201.06575,-53104.44466,33209.55334,0.034053982,0.043851802,0.001762717,0.000518843,-0.001209759,-0.001962242,-0.017005292,-0.015034552,-0.00795811,-0.012512673,-0.01799095,-0.015659539,-0.002636567,-0.005517145,-0.033102896,-0.0095383,-0.046209851,-0.00641752
9413,-322,0.4,0.000232,0.000682,0.0265,10400000,30500000,29500000,file://localhost/home/slycat/src/slycat-data/metro-demo/surfaces/run.9413.600.vtp,600,-239442.3813,31700.57729,-253173.0186,23439.91697,-289519.8344,13861.48271,-11258.15169,8984.252699,-59996.28478,34201.06575,-53104.44466,33209.55334,0.009326073,0.049530663,0.002409151,-0.000195417,-0.00403372,0.000925549,-0.018606878,-0.012254788,-0.010815989,-0.009694479,-0.019128452,-0.01295775,-0.005826524,-0.004428137,-0.036750203,-0.007617658,-0.049857741,-0.003142842
9413,-322,0.4,0.000232,0.000682,0.0265,10400000,30500000,29500000,file://localhost/home/slycat/src/slycat-data/metro-demo/surfaces/run.9413.650.vtp,650,-239442.3813,31700.57729,-253173.0186,23439.91697,-289519.8344,13861.48271,-11258.15169,8984.252699,-59996.28478,34201.06575,-53104.44466,33209.55334,-0.010362544,0.052117454,0.003302108,-0.000924491,-0.006743434,0.002342002,-0.02106521,-0.010544802,-0.013813521,-0.008746413,-0.021348189,-0.010100264,-0.008656895,-0.003264441,-0.042037394,-0.005791121,-0.052843752,0.000182008
9413,-322,0.4,0.000232,0.000682,0.0265,10400000,30500000,29500000,file://localhost/home/slycat/src/slycat-data/metro-demo/surfaces/run.9413.700.vtp,700,-239442.3813,31700.57729,-253173.0186,23439.91697,-289519.8344,13861.48271,-11258.15169,8984.252699,-59996.28478,34201.06575,-53104.44466,33209.55334,-0.048792858,0.048234674,0.003948087,-0.000840276,-0.009281276,0.006008998,-0.023820615,-0.009501838,-0.016500435,-0.007873407,-0.024272531,-0.009081793,-0.011269177,-0.002800391,-0.04376274,-0.003414344,-0.052290917,0.003143662
9413,-322,0.4,0.000232,0.000682,0.0265,10400000,30500000,29500000,file://localhost/home/slycat/src/slycat-data/metro-demo/surfaces/run.9413.750.vtp,750,-239442.3813,31700.57729,-253173.0186,23439.91697,-289519.8344,13861.48271,-11258.15169,8984.252699,-59996.28478,34201.06575,-53104.44466,33209.55334,-0.063997098,0.021285634,0.004767156,-0.000489425,-0.011335476,0.006652035,-0.026196115,-0.01005231,-0.019335072,-0.008314615,-0.026685821,-0.009487652,-0.013493517,-0.002422698,-0.044809317,-0.002079512,-0.053099177,0.005559897
9413,-322,0.4,0.000232,0.000682,0.0265,10400000,30500000,29500000,file://localhost/home/slycat/src/slycat-data/metro-demo/surfaces/run.9413.800.vtp,800,-239442.3813,31700.57729,-253173.0186,23439.91697,-289519.8344,13861.48271,-11258.15169,8984.252699,-59996.28478,34201.06575,-53104.44466,33209.55334,-0.082057094,-0.01254315,0.005832234,-6.52E-05,-0.013757999,0.008197548,-0.02831129,-0.009528802,-0.021699586,-0.007749654,-0.028800209,-0.00914322,-0.01595699,-0.001099486,-0.044529324,0.000270835,-0.056248843,0.008648587
9413,-322,0.4,0.000232,0.000682,0.0265,10400000,30500000,29500000,file://localhost/home/slycat/src/slycat-data/metro-demo/surfaces/run.9413.850.vtp,850,-239442.3813,31700.57729,-253173.0186,23439.91697,-289519.8344,13861.48271,-11258.15169,8984.252699,-59996.28478,34201.06575,-53104.44466,33209.55334,-0.100769793,-0.088854585,0.007042588,0.000264564,-0.016416653,0.010348305,-0.029820248,-0.007001321,-0.024328408,-0.006210464,-0.030272133,-0.006501049,-0.018624171,-0.000574708,-0.047283364,0.002019839,-0.062730177,0.010431204
9413,-322,0.4,0.000232,0.000682,0.0265,10400000,30500000,29500000,file://localhost/home/slycat/src/slycat-data/metro-demo/surfaces/run.9413.900.vtp,900,-239442.3813,31700.57729,-253173.0186,23439.91697,-289519.8344,13861.48271,-11258.15169,8984.252699,-59996.28478,34201.06575,-53104.44466,33209.55334,-0.119684056,-0.138414915,0.008275601,0.000326933,-0.018977257,0.010230845,-0.030758239,-0.003540779,-0.02690061,-0.005715167,-0.031204779,-0.003232145,-0.021134223,-0.000158807,-0.04746466,0.004674055,-0.066227382,0.012587021
9413,-322,0.4,0.000232,0.000682,0.0265,10400000,30500000,29500000,file://localhost/home/slycat/src/slycat-data/metro-demo/surfaces/run.9413.950.vtp,950,-239442.3813,31700.57729,-253173.0186,23439.91697,-289519.8344,13861.48271,-11258.15169,8984.252699,-59996.28478,34201.06575,-53104.44466,33209.55334,-0.13221116,-0.172486864,0.009582162,0.000339485,-0.021706944,0.011617683,-0.032025858,-0.00017195,-0.029171101,-0.004062754,-0.032769513,-0.000420673,-0.023874783,0.000351508,-0.048287486,0.00741312,-0.069118844,0.015211644
9413,-322,0.4,0.000232,0.000682,0.0265,10400000,30500000,29500000,file://localhost/home/slycat/src/slycat-data/metro-demo/surfaces/run.9413.1000.vtp,1000,-239442.3813,31700.57729,-253173.0186,23439.91697,-289519.8344,13861.48271,-11258.15169,8984.252699,-59996.28478,34201.06575,-53104.44466,33209.55334,-0.134904934,-0.188814569,0.01079411,0.000737684,-0.023985389,0.01208872,-0.033622082,0.001326275,-0.031281686,-0.003333263,-0.034592016,0.000838715,-0.025965598,0.000933769,-0.049581894,0.009727522,-0.070685426,0.017599868
9935,-144,0.35,0.000249,0.000752,0.0265,10400000,30500000,29500000,file://localhost/home/slycat/src/slycat-data/metro-demo/surfaces/run.9935.0.vtp,0,-240178.1509,0,-248963.0343,0,-287316.3953,0,-10661.92835,0,-60080.4679,37931.23693,-52770.38781,38597.13005,0.075292741,-0.037285444,-0.0160364,0.00147945,0.029349307,0.001741594,0.016702913,-0.027157124,0.023185709,-0.020703742,0.016099344,-0.027655342,0.025955968,-0.016351766,-0.039562947,-0.044662905,-0.08231376,-0.05398163
9935,-144,0.35,0.000249,0.000752,0.0265,10400000,30500000,29500000,file://localhost/home/slycat/src/slycat-data/metro-demo/surfaces/run.9935.50.vtp,50,-240178.1509,0,-248963.0343,0,-287316.3953,0,-10661.92835,0,-60080.4679,37931.23693,-52770.38781,38597.13005,0.074737872,-0.035653426,-0.014914261,0.001831375,0.027822796,0.001563628,0.022993666,-0.020982867,0.02285918,-0.017906644,0.022818055,-0.021499871,0.025994717,-0.011916695,-0.008526995,-0.036284352,-0.026441292,-0.050147926
9935,-144,0.35,0.000249,0.000752,0.0265,10400000,30500000,29500000,file://localhost/home/slycat/src/slycat-data/metro-demo/surfaces/run.9935.100.vtp,100,-240178.1509,0,-248963.0343,0,-287316.3953,0,-10661.92835,0,-60080.4679,37931.23693,-52770.38781,38597.13005,0.073881316,-0.033771623,-0.013832935,0.001835733,0.026295651,0.001389899,0.033235519,-0.011282235,0.023122898,-0.014136618,0.033673677,-0.011764102,0.026242492,-0.007008741,0.018159338,-0.026574225,0.018042247,-0.044630212
9935,-144,0.35,0.000249,0.000752,0.0265,10400000,30500000,29500000,file://localhost/home/slycat/src/slycat-data/metro-demo/surfaces/run.9935.150.vtp,150,-240178.1509,0,-248963.0343,0,-287316.3953,0,-10661.92835,0,-60080.4679,37931.23693,-52770.38781,38597.13005,0.072981281,-0.031834616,-0.012868608,0.001547163,0.024827209,0.001216567,0.03892794,-0.00319809,0.02553437,-0.007221202,0.039486821,-0.003592674,0.025920015,-0.002572574,0.040600164,-0.016348528,0.051943822,-0.032591515
9935,-144,0.35,0.000249,0.000752,0.0265,10400000,30500000,29500000,file://localhost/home/slycat/src/slycat-data/metro-demo/surfaces/run.9935.200.vtp,200,-240178.1509,0,-248963.0343,0,-287316.3953,0,-10661.92835,0,-60080.4679,37931.23693,-52770.38781,38597.13005,0.072500172,-0.030317616,-0.012049981,0.001158424,0.023504264,0.001066409,0.040379757,0.002112995,0.027954471,-0.000858345,0.040922426,0.001905642,0.025377335,0.000797208,0.050509096,-0.011012182,0.067119976,-0.023315167
9935,-144,0.35,0.000249,0.000752,0.0265,10400000,30500000,29500000,file://localhost/home/slycat/src/slycat-data/metro-demo/surfaces/run.9935.250.vtp,250,-240178.1509,0,-248963.0343,0,-287316.3953,0,-10661.92835,0,-60080.4679,37931.23693,-52770.38781,38597.13005,0.071621105,-0.028338985,-0.011276987,0.000550654,0.022179034,0.000885372,0.040144312,0.00636187,0.028339517,0.003069126,0.040692589,0.006179002,0.024433918,0.003098353,0.062005292,-0.003654606,0.083746427,-0.011146958
9935,-144,0.35,0.000249,0.000752,0.0265,10400000,30500000,29500000,file://localhost/home/slycat/src/slycat-data/metro-demo/surfaces/run.9935.300.vtp,300,-240178.1509,0,-248963.0343,0,-287316.3953,0,-10661.92835,0,-60080.4679,37931.23693,-52770.38781,38597.13005,0.071173447,-0.026894447,-0.010572438,0.000208543,0.021034227,0.000752812,0.038968864,0.008978051,0.028942948,0.006750681,0.039363064,0.009085858,0.023670094,0.004974956,0.066652308,-0.000219476,0.091164357,-0.003981075
9935,-144,0.35,0.000249,0.000752,0.0265,10400000,30500000,29500000,file://localhost/home/slycat/src/slycat-data/metro-demo/surfaces/run.9935.350.vtp,350,-240178.1509,0,-248963.0343,0,-287316.3953,0,-10661.92835,0,-60080.4679,37931.23693,-52770.38781,38597.13005,0.070859937,-0.025653659,-0.009905207,-0.000103558,0.019963585,0.000631924,0.037515149,0.01085142,0.02912249,0.009706842,0.03812136,0.010979758,0.022855494,0.00667351,0.067551356,0.001388221,0.093314346,-0.000108813
9935,-144,0.35,0.000249,0.000752,0.0265,10400000,30500000,29500000,file://localhost/home/slycat/src/slycat-data/metro-demo/surfaces/run.9935.400.vtp,400,-240178.1509,0,-248963.0343,0,-287316.3953,0,-10661.92835,0,-60080.4679,37931.23693,-52770.38781,38597.13005,0.070382924,-0.024268779,-0.009350034,-0.0005266,0.019023455,0.000531457,0.037520821,0.0130851,0.028589898,0.011074438,0.038080785,0.013206739,0.022036179,0.0080778,0.070614342,0.004580127,0.097736537,0.004169206
9935,-144,0.35,0.000249,0.000752,0.0265,10400000,30500000,29500000,file://localhost/home/slycat/src/slycat-data/metro-demo/surfaces/run.9935.450.vtp,450,-240178.1509,0,-248963.0343,0,-287316.3953,0,-10661.92835,0,-60080.4679,37931.23693,-52770.38781,38597.13005,0.069860071,-0.022895355,-0.00896224,-0.00092603,0.018313357,0.000480228,0.037260758,0.01436077,0.028119546,0.011815225,0.037841441,0.014465371,0.021413875,0.008880739,0.073659219,0.007040829,0.103429453,0.007382262
9935,-144,0.35,0.000249,0.000752,0.0265,10400000,30500000,29500000,file://localhost/home/slycat/src/slycat-data/metro-demo/surfaces/run.9935.500.vtp,500,-240178.1509,0,-248963.0343,0,-287316.3953,0,-10661.92835,0,-60080.4679,37931.23693,-52770.38781,38597.13005,0.069496706,-0.021971677,-0.008754763,-0.001220905,0.017880441,0.000455542,0.036817843,0.01484526,0.027961054,0.012489506,0.037476706,0.015084792,0.021105738,0.00950362,0.074919102,0.008388961,0.106433488,0.009219269
9935,-144,0.35,0.000249,0.000752,0.0265,10400000,30500000,29500000,file://localhost/home/slycat/src/slycat-data/metro-demo/surfaces/run.9935.550.vtp,550,-240178.1509,0,-248963.0343,0,-287316.3953,0,-10661.92835,0,-60080.4679,37931.23693,-52770.38781,38597.13005,0.069257956,-0.021163913,-0.008456549,-0.001401559,0.01738034,0.000401658,0.036274469,0.015550673,0.027657595,0.013200975,0.036920296,0.015776086,0.020627777,0.010014657,0.075442138,0.009317016,0.10773288,0.010710768
9935,-144,0.35,0.000249,0.000752,0.0265,10400000,30500000,29500000,file://localhost/home/slycat/src/slycat-data/metro-demo/surfaces/run.9935.600.vtp,600,-240178.1509,0,-248963.0343,0,-287316.3953,0,-10661.92835,0,-60080.4679,37931.23693,-52770.38781,38597.13005,0.069089361,-0.020788567,-0.008314397,-0.001541421,0.017096086,0.000426501,0.03611559,0.016132936,0.02760074,0.013607365,0.036814371,0.016295223,0.020442277,0.010957425,0.075445174,0.009834274,0.108076839,0.01142276
9935,-144,0.35,0.000249,0.000752,0.0265,10400000,30500000,29500000,file://localhost/home/slycat/src/slycat-data/metro-demo/surfaces/run.9935.650.vtp,650,-240178.1509,0,-248963.0343,0,-287316.3953,0,-10661.92835,0,-60080.4679,37931.23693,-52770.38781,38597.13005,0.068977221,-0.020389789,-0.008168256,-0.001634526,0.016846585,0.000399491,0.035705713,0.016310557,0.027388107,0.013856729,0.036472652,0.01640391,0.020198002,0.011346785,0.075248627,0.010049125,0.108040074,0.012091716
9935,-144,0.35,0.000249,0.000752,0.0265,10400000,30500000,29500000,file://localhost/home/slycat/src/slycat-data/metro-demo/surfaces/run.9935.700.vtp,700,-240178.1509,0,-248963.0343,0,-287316.3953,0,-10661.92835,0,-60080.4679,37931.23693,-52770.38781,38597.13005,0.068926029,-0.020198407,-0.008123374,-0.001711897,0.016755831,0.000397083,0.035674155,0.016465939,0.027398616,0.013922516,0.036561795,0.016491405,0.020051356,0.011174268,0.075056314,0.010107259,0.108038656,0.011835129
9935,-144,0.35,0.000249,0.000752,0.0265,10400000,30500000,29500000,file://localhost/home/slycat/src/slycat-data/metro-demo/surfaces/run.9935.750.vtp,750,-240178.1509,0,-248963.0343,0,-287316.3953,0,-10661.92835,0,-60080.4679,37931.23693,-52770.38781,38597.13005,0.06893702,-0.020189175,-0.008112217,-0.00170373,0.016737358,0.000395507,0.035569186,0.01639626,0.02740226,0.01395644,0.036466415,0.016486662,0.020002605,0.011130971,0.074537409,0.009908342,0.107199726,0.011727319
9935,-144,0.35,0.000249,0.000752,0.0265,10400000,30500000,29500000,file://localhost/home/slycat/src/slycat-data/metro-demo/surfaces/run.9935.800.vtp,800,-240178.1509,0,-248963.0343,0,-287316.3953,0,-10661.92835,0,-60080.4679,37931.23693,-52770.38781,38597.13005,0.069098921,-0.020450881,-0.008165224,-0.001623402,0.016847684,0.000404397,0.034634933,0.015076652,0.027211149,0.013468575,0.035463278,0.015098531,0.019939,0.010538596,0.07189831,0.008480985,0.102676817,0.009712237
9935,-144,0.35,0.000249,0.000752,0.0265,10400000,30500000,29500000,file://localhost/home/slycat/src/slycat-data/metro-demo/surfaces/run.9935.850.vtp,850,-240178.1509,0,-248963.0343,0,-287316.3953,0,-10661.92835,0,-60080.4679,37931.23693,-52770.38781,38597.13005,0.069454889,-0.021020438,-0.008282765,-0.001440698,0.017088332,0.000426896,0.032600321,0.012298671,0.02682546,0.012352495,0.033297058,0.012314991,0.019797642,0.008946136,0.065934598,0.005515232,0.092673217,0.0058469
9935,-144,0.35,0.000249,0.000752,0.0265,10400000,30500000,29500000,file://localhost/home/slycat/src/slycat-data/metro-demo/surfaces/run.9935.900.vtp,900,-240178.1509,0,-248963.0343,0,-287316.3953,0,-10661.92835,0,-60080.4679,37931.23693,-52770.38781,38597.13005,0.069974467,-0.021913227,-0.008508374,-0.001203204,0.017513126,0.00046588,0.029487969,0.007919365,0.026318769,0.010576387,0.030125439,0.00795117,0.019646463,0.006176548,0.056767099,0.000887204,0.077516335,-0.000446096
9935,-144,0.35,0.000249,0.000752,0.0265,10400000,30500000,29500000,file://localhost/home/slycat/src/slycat-data/metro-demo/surfaces/run.9935.950.vtp,950,-240178.1509,0,-248963.0343,0,-287316.3953,0,-10661.92835,0,-60080.4679,37931.23693,-52770.38781,38597.13005,0.070661978,-0.02338571,-0.008802702,-0.000870213,0.018074229,0.000570498,0.025500537,0.002203275,0.025786781,0.008025063,0.025982559,0.002185125,0.019579335,0.00333903,0.045160917,-0.00476745,0.058696752,-0.008662898
9935,-144,0.35,0.000249,0.000752,0.0265,10400000,30500000,29500000,file://localhost/home/slycat/src/slycat-data/metro-demo/surfaces/run.9935.1000.vtp,1000,-240178.1509,0,-248963.0343,0,-287316.3953,0,-10661.92835,0,-60080.4679,37931.23693,-52770.38781,38597.13005,0.071484259,-0.02467152,-0.009100103,-0.000441787,0.018664557,0.000625922,0.020605705,-0.004510263,0.024652956,0.004771393,0.020862859,-0.004511039,0.019349238,2.69E-05,0.031094162,-0.011158515,0.03647782,-0.016738585
10057,-411,0.35,0.000249,0.000682,0.0283,10400000,30500000,29500000,file://localhost/home/slycat/src/slycat-data/metro-demo/surfaces/run.10057.0.vtp,0,-226537.022,34203.63896,-242529.2498,14798.78389,-278669.7823,10887.09198,-14880.86906,9746.398878,-57601.64283,36257.36265,-52544.04275,34671.99046,0.075292741,-0.037285444,-0.0160364,0.00147945,0.029349307,0.001741594,0.016702913,-0.027157124,0.023185709,-0.020703742,0.016099344,-0.027655342,0.025955968,-0.016351766,-0.039562947,-0.044662905,-0.08231376,-0.05398163
10057,-411,0.35,0.000249,0.000682,0.0283,10400000,30500000,29500000,file://localhost/home/slycat/src/slycat-data/metro-demo/surfaces/run.10057.50.vtp,50,-226537.022,34203.63896,-242529.2498,14798.78389,-278669.7823,10887.09198,-14880.86906,9746.398878,-57601.64283,36257.36265,-52544.04275,34671.99046,0.073347925,-0.032245496,-0.012963363,0.001697643,0.025002233,0.001234646,0.038396766,-0.00380177,0.025881116,-0.007175237,0.038875964,-0.004299697,0.026091628,-0.002545432,0.042900056,-0.015635674,0.054995128,-0.03264414
10057,-411,0.35,0.000249,0.000682,0.0283,10400000,30500000,29500000,file://localhost/home/slycat/src/slycat-data/metro-demo/surfaces/run.10057.100.vtp,100,-226537.022,34203.63896,-242529.2498,14798.78389,-278669.7823,10887.09198,-14880.86906,9746.398878,-57601.64283,36257.36265,-52544.04275,34671.99046,0.070988254,-0.026409205,-0.010375859,7.68E-05,0.020706272,0.0007044,0.03880408,0.009627163,0.029121553,0.007847126,0.038846831,0.0099754,0.02343055,0.005724373,0.065649337,-0.00075614,0.090443712,-0.004610172
10057,-411,0.35,0.000249,0.000682,0.0283,10400000,30500000,29500000,file://localhost/home/slycat/src/slycat-data/metro-demo/surfaces/run.10057.150.vtp,150,-226537.022,34203.63896,-242529.2498,14798.78389,-278669.7823,10887.09198,-14880.86906,9746.398878,-57601.64283,36257.36265,-52544.04275,34671.99046,0.068631373,-0.019593978,-0.007933521,-0.001584093,0.01657853,0.000188869,0.034219936,0.015110252,0.027133667,0.014342178,0.035042073,0.015567823,0.019977874,0.011515589,0.076799986,0.010484642,0.110990116,0.012313032
10057,-411,0.35,0.000249,0.000682,0.0283,10400000,30500000,29500000,file://localhost/home/slycat/src/slycat-data/metro-demo/surfaces/run.10057.200.vtp,200,-226537.022,34203.63896,-242529.2498,14798.78389,-278669.7823,10887.09198,-14880.86906,9746.398878,-57601.64283,36257.36265,-52544.04275,34671.99046,0.066485243,-0.01314421,-0.006250745,-0.002213894,0.013513842,-0.000149473,0.028413289,0.014446777,0.024995287,0.017461667,0.029250686,0.014723267,0.016797782,0.012720679,0.076847479,0.016796213,0.113010109,0.02007278
10057,-411,0.35,0.000249,0.000682,0.0283,10400000,30500000,29500000,file://localhost/home/slycat/src/slycat-data/metro-demo/surfaces/run.10057.250.vtp,250,-226537.022,34203.63896,-242529.2498,14798.78389,-278669.7823,10887.09198,-14880.86906,9746.398878,-57601.64283,36257.36265,-52544.04275,34671.99046,0.070053548,-0.013598328,-0.004191319,0.000530955,0.01081593,-0.0006235,-0.004070781,-0.019939657,0.004464932,-0.013526526,-0.004584518,-0.020356173,0.008541644,-0.011537243,-0.019483648,-0.019529784,-0.03211618,-0.018232287
10057,-411,0.35,0.000249,0.000682,0.0283,10400000,30500000,29500000,file://localhost/home/slycat/src/slycat-data/metro-demo/surfaces/run.10057.300.vtp,300,-226537.022,34203.63896,-242529.2498,14798.78389,-278669.7823,10887.09198,-14880.86906,9746.398878,-57601.64283,36257.36265,-52544.04275,34671.99046,0.063860983,0.006077877,-0.002114901,0.001172418,0.00702469,-0.002274403,-0.005577613,-0.015332502,0.000844659,-0.011156969,-0.006357356,-0.015978062,0.004345835,-0.012596664,-0.037376287,-0.020153714,-0.057602016,-0.019994415
10057,-411,0.35,0.000249,0.000682,0.0283,10400000,30500000,29500000,file://localhost/home/slycat/src/slycat-data/metro-demo/surfaces/run.10057.350.vtp,350,-226537.022,34203.63896,-242529.2498,14798.78389,-278669.7823,10887.09198,-14880.86906,9746.398878,-57601.64283,36257.36265,-52544.04275,34671.99046,0.053289355,0.026859741,7.35E-05,0.001221434,0.002817615,-0.003080682,-0.009069167,-0.012545022,-0.002953314,-0.009769821,-0.009794397,-0.013302221,0.000518676,-0.009065207,-0.04198596,-0.016885408,-0.060549665,-0.015624648
10057,-411,0.35,0.000249,0.000682,0.0283,10400000,30500000,29500000,file://localhost/home/slycat/src/slycat-data/metro-demo/surfaces/run.10057.400.vtp,400,-226537.022,34203.63896,-242529.2498,14798.78389,-278669.7823,10887.09198,-14880.86906,9746.398878,-57601.64283,36257.36265,-52544.04275,34671.99046,0.037577173,0.044440399,0.00200977,0.00083785,-0.001421715,-0.002997596,-0.014933451,-0.012343741,-0.009013401,-0.011649352,-0.015451262,-0.012422766,-0.003700519,-0.007404551,-0.041046631,-0.012037259,-0.061471802,-0.008391901
10057,-411,0.35,0.000249,0.000682,0.0283,10400000,30500000,29500000,file://localhost/home/slycat/src/slycat-data/metro-demo/surfaces/run.10057.450.vtp,450,-226537.022,34203.63896,-242529.2498,14798.78389,-278669.7823,10887.09198,-14880.86906,9746.398878,-57601.64283,36257.36265,-52544.04275,34671.99046,0.016072594,0.058925253,0.003668721,0.000153282,-0.005572344,-0.002290067,-0.020698987,-0.011531644,-0.015338717,-0.014285351,-0.021971741,-0.012486313,-0.007892494,-0.005960469,-0.047164584,-0.009025206,-0.06060157,-0.000741903
10057,-411,0.35,0.000249,0.000682,0.0283,10400000,30500000,29500000,file://localhost/home/slycat/src/slycat-data/metro-demo/surfaces/run.10057.500.vtp,500,-226537.022,34203.63896,-242529.2498,14798.78389,-278669.7823,10887.09198,-14880.86906,9746.398878,-57601.64283,36257.36265,-52544.04275,34671.99046,-0.007847765,0.071413542,0.005194673,-0.000253858,-0.009593814,-0.001688369,-0.025696072,-0.010383209,-0.019461019,-0.013079643,-0.026173096,-0.010261717,-0.01176758,-0.004518973,-0.04530881,-0.004119818,-0.062919069,0.003172892
10057,-411,0.35,0.000249,0.000682,0.0283,10400000,30500000,29500000,file://localhost/home/slycat/src/slycat-data/metro-demo/surfaces/run.10057.550.vtp,550,-226537.022,34203.63896,-242529.2498,14798.78389,-278669.7823,10887.09198,-14880.86906,9746.398878,-57601.64283,36257.36265,-52544.04275,34671.99046,-0.032694008,0.079633565,0.006692713,-0.000593508,-0.013556218,-0.001291938,-0.027168964,-0.007734403,-0.021192802,-0.007834389,-0.028059848,-0.008493365,-0.015531829,-0.003139415,-0.045501827,-0.000835976,-0.064097609,0.005637298
10057,-411,0.35,0.000249,0.000682,0.0283,10400000,30500000,29500000,file://localhost/home/slycat/src/slycat-data/metro-demo/surfaces/run.10057.600.vtp,600,-226537.022,34203.63896,-242529.2498,14798.78389,-278669.7823,10887.09198,-14880.86906,9746.398878,-57601.64283,36257.36265,-52544.04275,34671.99046,-0.058135748,0.082241353,0.008229167,-0.000800548,-0.017535307,-0.001053508,-0.02674823,-0.002150321,-0.021946305,-0.000804533,-0.026757155,-0.001749976,-0.01947362,-0.002240561,-0.046131316,0.002843594,-0.067642346,0.005791966
10057,-411,0.35,0.000249,0.000682,0.0283,10400000,30500000,29500000,file://localhost/home/slycat/src/slycat-data/metro-demo/surfaces/run.10057.650.vtp,650,-226537.022,34203.63896,-242529.2498,14798.78389,-278669.7823,10887.09198,-14880.86906,9746.398878,-57601.64283,36257.36265,-52544.04275,34671.99046,-0.082914935,0.082176847,0.009834436,-0.000979541,-0.021559067,-0.000887832,-0.027230111,0.004301478,-0.024776325,0.002451221,-0.027571331,0.003942796,-0.023416003,-0.001922588,-0.048118257,0.006526566,-0.070703856,0.008446521
10057,-411,0.35,0.000249,0.000682,0.0283,10400000,30500000,29500000,file://localhost/home/slycat/src/slycat-data/metro-demo/surfaces/run.10057.700.vtp,700,-226537.022,34203.63896,-242529.2498,14798.78389,-278669.7823,10887.09198,-14880.86906,9746.398878,-57601.64283,36257.36265,-52544.04275,34671.99046,-0.106418292,0.080651528,0.01152156,-0.000567333,-0.025645427,-0.001042025,-0.030632258,0.006558126,-0.02890054,0.003268514,-0.030556832,0.006676241,-0.027384832,-0.000728438,-0.050041523,0.010623973,-0.072771592,0.012795245
10057,-411,0.35,0.000249,0.000682,0.0283,10400000,30500000,29500000,file://localhost/home/slycat/src/slycat-data/metro-demo/surfaces/run.10057.750.vtp,750,-226537.022,34203.63896,-242529.2498,14798.78389,-278669.7823,10887.09198,-14880.86906,9746.398878,-57601.64283,36257.36265,-52544.04275,34671.99046,-0.129343871,0.079782285,0.013318163,0.000609161,-0.029826448,-0.001524229,-0.035049584,0.00779532,-0.03344932,0.003236991,-0.03522675,0.008093121,-0.031373699,0.000358684,-0.052711577,0.014431991,-0.07318464,0.016311262
10057,-411,0.35,0.000249,0.000682,0.0283,10400000,30500000,29500000,file://localhost/home/slycat/src/slycat-data/metro-demo/surfaces/run.10057.800.vtp,800,-226537.022,34203.63896,-242529.2498,14798.78389,-278669.7823,10887.09198,-14880.86906,9746.398878,-57601.64283,36257.36265,-52544.04275,34671.99046,-0.152493312,0.080109699,0.015342036,0.001412302,-0.034137096,-0.002391954,-0.040121192,0.007370479,-0.037812613,0.003616355,-0.040221885,0.007792932,-0.035593667,4.51E-05,-0.054414028,0.017518455,-0.071932642,0.020829147
10057,-411,0.35,0.000249,0.000682,0.0283,10400000,30500000,29500000,file://localhost/home/slycat/src/slycat-data/metro-demo/surfaces/run.10057.850.vtp,850,-226537.022,34203.63896,-242529.2498,14798.78389,-278669.7823,10887.09198,-14880.86906,9746.398878,-57601.64283,36257.36265,-52544.04275,34671.99046,-0.176409446,0.080852209,0.017557476,0.001996562,-0.038556654,-0.00348003,-0.045156478,0.006450687,-0.042525697,0.003173973,-0.045109183,0.007118081,-0.039972447,-0.000580011,-0.054340107,0.020911701,-0.073992711,0.025740114
10057,-411,0.35,0.000249,0.000682,0.0283,10400000,30500000,29500000,file://localhost/home/slycat/src/slycat-data/metro-demo/surfaces/run.10057.900.vtp,900,-226537.022,34203.63896,-242529.2498,14798.78389,-278669.7823,10887.09198,-14880.86906,9746.398878,-57601.64283,36257.36265,-52544.04275,34671.99046,-0.200385962,0.079352041,0.019979776,0.002018595,-0.043171776,-0.004496763,-0.0495573,0.008566578,-0.048282531,0.001549499,-0.049595747,0.009312668,-0.044599518,-0.001060777,-0.058457921,0.023890192,-0.074716816,0.030775065
10057,-411,0.35,0.000249,0.000682,0.0283,10400000,30500000,29500000,file://localhost/home/slycat/src/slycat-data/metro-demo/surfaces/run.10057.950.vtp,950,-226537.022,34203.63896,-242529.2498,14798.78389,-278669.7823,10887.09198,-14880.86906,9746.398878,-57601.64283,36257.36265,-52544.04275,34671.99046,-0.223739853,0.075810189,0.022607903,0.001383938,-0.048048437,-0.005523184,-0.053406804,0.011801059,-0.053273816,0.001971862,-0.053213291,0.012838121,-0.049417725,-0.000684295,-0.055771285,0.029972897,-0.076345543,0.036329459
10057,-411,0.35,0.000249,0.000682,0.0283,10400000,30500000,29500000,file://localhost/home/slycat/src/slycat-data/metro-demo/surfaces/run.10057.1000.vtp,1000,-226537.022,34203.63896,-242529.2498,14798.78389,-278669.7823,10887.09198,-14880.86906,9746.398878,-57601.64283,36257.36265,-52544.04275,34671.99046,-0.246131606,0.069779605,0.025442784,0.000981313,-0.053255868,-0.006625392,-0.056103553,0.015924845,-0.05677838,0.005822015,-0.055832035,0.016935791,-0.054255386,0.001117271,-0.060013795,0.034741567,-0.079015871,0.039668434
11003,-322,0.3,0.000214,0.000735,0.03,10400000,30500000,29500000,file://localhost/home/slycat/src/slycat-data/metro-demo/surfaces/run.11003.0.vtp,0,-239008.2317,20038.13425,-252460.5314,17625.66226,-284485.8023,10724.33609,-11483.17383,13688.28049,-58107.19727,33817.05493,-51241.11785,32820.12215,0.075292741,-0.037285444,-0.0160364,0.00147945,0.029349307,0.001741594,0.016702913,-0.027157124,0.023185709,-0.020703742,0.016099344,-0.027655342,0.025955968,-0.016351766,-0.039562947,-0.044662905,-0.08231376,-0.05398163
11003,-322,0.3,0.000214,0.000735,0.03,10400000,30500000,29500000,file://localhost/home/slycat/src/slycat-data/metro-demo/surfaces/run.11003.50.vtp,50,-239008.2317,20038.13425,-252460.5314,17625.66226,-284485.8023,10724.33609,-11483.17383,13688.28049,-58107.19727,33817.05493,-51241.11785,32820.12215,0.073901241,-0.03351766,-0.013600873,0.001875183,0.025958735,0.001357172,0.035039193,-0.009063973,0.023791736,-0.012496846,0.035470427,-0.009564528,0.026234396,-0.005596107,0.026797619,-0.023069937,0.030552466,-0.041772821
11003,-322,0.3,0.000214,0.000735,0.03,10400000,30500000,29500000,file://localhost/home/slycat/src/slycat-data/metro-demo/surfaces/run.11003.100.vtp,100,-239008.2317,20038.13425,-252460.5314,17625.66226,-284485.8023,10724.33609,-11483.17383,13688.28049,-58107.19727,33817.05493,-51241.11785,32820.12215,0.072305572,-0.029255536,-0.011498544,0.000908077,0.022621447,0.000938416,0.040066128,0.004557532,0.028572278,0.002285781,0.040520641,0.004358688,0.024864852,0.002847059,0.06333379,-0.00360843,0.085173598,-0.01314555
11003,-322,0.3,0.000214,0.000735,0.03,10400000,30500000,29500000,file://localhost/home/slycat/src/slycat-data/metro-demo/surfaces/run.11003.150.vtp,150,-239008.2317,20038.13425,-252460.5314,17625.66226,-284485.8023,10724.33609,-11483.17383,13688.28049,-58107.19727,33817.05493,-51241.11785,32820.12215,0.070636167,-0.02486465,-0.009537509,-0.000314576,0.01935655,0.00056301,0.03794336,0.012645422,0.028732304,0.010390306,0.038709547,0.012855359,0.02244748,0.007947266,0.070258407,0.003596249,0.09649708,0.00257568
11003,-322,0.3,0.000214,0.000735,0.03,10400000,30500000,29500000,file://localhost/home/slycat/src/slycat-data/metro-demo/surfaces/run.11003.200.vtp,200,-239008.2317,20038.13425,-252460.5314,17625.66226,-284485.8023,10724.33609,-11483.17383,13688.28049,-58107.19727,33817.05493,-51241.11785,32820.12215,0.068630222,-0.019300274,-0.007715047,-0.001652711,0.016222088,0.000191015,0.034066297,0.015911746,0.026984979,0.01497763,0.034858201,0.016157367,0.0195759,0.011820243,0.075139406,0.010649244,0.108258228,0.012745245
11003,-322,0.3,0.000214,0.000735,0.03,10400000,30500000,29500000,file://localhost/home/slycat/src/slycat-data/metro-demo/surfaces/run.11003.250.vtp,250,-239008.2317,20038.13425,-252460.5314,17625.66226,-284485.8023,10724.33609,-11483.17383,13688.28049,-58107.19727,33817.05493,-51241.11785,32820.12215,0.06770477,-0.016807305,-0.006672208,-0.002118636,0.01425922,9.01E-05,0.029932911,0.014585822,0.025964306,0.017302147,0.030520734,0.014574669,0.017385748,0.012087295,0.074560363,0.014313475,0.109311835,0.017448114
11003,-322,0.3,0.000214,0.000735,0.03,10400000,30500000,29500000,file://localhost/home/slycat/src/slycat-data/metro-demo/surfaces/run.11003.300.vtp,300,-239008.2317,20038.13425,-252460.5314,17625.66226,-284485.8023,10724.33609,-11483.17383,13688.28049,-58107.19727,33817.05493,-51241.11785,32820.12215,0.068462023,-0.016843479,-0.005480679,-0.001389786,0.012387935,0.000190106,0.011837259,-0.004864047,0.016943046,0.005667735,0.010855144,-0.005862334,0.013174327,0.000331764,0.021888796,-0.006463931,0.029734425,-0.008699133
11003,-322,0.3,0.000214,0.000735,0.03,10400000,30500000,29500000,file://localhost/home/slycat/src/slycat-data/metro-demo/surfaces/run.11003.350.vtp,350,-239008.2317,20038.13425,-252460.5314,17625.66226,-284485.8023,10724.33609,-11483.17383,13688.28049,-58107.19727,33817.05493,-51241.11785,32820.12215,0.069177213,-0.014832792,-0.00411448,-0.000240372,0.01027484,-0.000354544,0.004312456,-0.010323232,0.010793343,-0.00153749,0.004399846,-0.010157346,0.010489043,-0.003621372,0.008249755,-0.009709927,0.009724133,-0.014102814
11003,-322,0.3,0.000214,0.000735,0.03,10400000,30500000,29500000,file://localhost/home/slycat/src/slycat-data/metro-demo/surfaces/run.11003.400.vtp,400,-239008.2317,20038.13425,-252460.5314,17625.66226,-284485.8023,10724.33609,-11483.17383,13688.28049,-58107.19727,33817.05493,-51241.11785,32820.12215,0.066337644,-0.00374235,-0.002675432,0.000466842,0.007800843,-0.001411407,-0.003538835,-0.015780144,0.004392149,-0.008662212,-0.003919091,-0.016149812,0.007374868,-0.005470104,-0.00941376,-0.012050529,-0.01782149,-0.016257611
11003,-322,0.3,0.000214,0.000735,0.03,10400000,30500000,29500000,file://localhost/home/slycat/src/slycat-data/metro-demo/surfaces/run.11003.450.vtp,450,-239008.2317,20038.13425,-252460.5314,17625.66226,-284485.8023,10724.33609,-11483.17383,13688.28049,-58107.19727,33817.05493,-51241.11785,32820.12215,0.06236162,0.010741276,-0.001204057,0.001313308,0.005215769,-0.002467734,-0.010643481,-0.019022407,-0.003188071,-0.015888755,-0.011978603,-0.019703151,0.003511106,-0.010173648,-0.040409576,-0.019285292,-0.049364117,-0.014779423
11003,-322,0.3,0.000214,0.000735,0.03,10400000,30500000,29500000,file://localhost/home/slycat/src/slycat-data/metro-demo/surfaces/run.11003.500.vtp,500,-239008.2317,20038.13425,-252460.5314,17625.66226,-284485.8023,10724.33609,-11483.17383,13688.28049,-58107.19727,33817.05493,-51241.11785,32820.12215,0.055995377,0.024368957,0.000691634,0.001130994,0.001841474,-0.004145864,-0.014454616,-0.017167085,-0.007514128,-0.015470826,-0.015034993,-0.018014877,-0.000548532,-0.009101467,-0.041395311,-0.015979667,-0.048627182,-0.009195892
11003,-322,0.3,0.000214,0.000735,0.03,10400000,30500000,29500000,file://localhost/home/slycat/src/slycat-data/metro-demo/surfaces/run.11003.550.vtp,550,-239008.2317,20038.13425,-252460.5314,17625.66226,-284485.8023,10724.33609,-11483.17383,13688.28049,-58107.19727,33817.05493,-51241.11785,32820.12215,0.062152133,0.012230196,0.000328042,-4.94E-05,0.001811259,-0.003785182,-0.015362045,-0.018019091,-0.00884746,-0.018137751,-0.016889712,-0.019051803,-0.000511012,-0.008683512,-0.040649671,-0.016172975,-0.05021518,-0.006492119
11003,-322,0.3,0.000214,0.000735,0.03,10400000,30500000,29500000,file://localhost/home/slycat/src/slycat-data/metro-demo/surfaces/run.11003.600.vtp,600,-239008.2317,20038.13425,-252460.5314,17625.66226,-284485.8023,10724.33609,-11483.17383,13688.28049,-58107.19727,33817.05493,-51241.11785,32820.12215,0.057495141,0.022557046,0.001194821,-0.000534827,-0.000106152,-0.004442796,-0.016575181,-0.016609845,-0.010261443,-0.016636308,-0.017604507,-0.0169367,-0.002390422,-0.008022676,-0.042793547,-0.014262111,-0.05455186,-0.005398316
11003,-322,0.3,0.000214,0.000735,0.03,10400000,30500000,29500000,file://localhost/home/slycat/src/slycat-data/metro-demo/surfaces/run.11003.650.vtp,650,-239008.2317,20038.13425,-252460.5314,17625.66226,-284485.8023,10724.33609,-11483.17383,13688.28049,-58107.19727,33817.05493,-51241.11785,32820.12215,0.04985728,0.034514194,0.002708639,-0.00047215,-0.003163806,-0.006074943,-0.019948381,-0.014738246,-0.013358667,-0.015934459,-0.02088471,-0.015222947,-0.005295889,-0.006838664,-0.045653232,-0.011763022,-0.054236315,-0.002934166
11003,-322,0.3,0.000214,0.000735,0.03,10400000,30500000,29500000,file://localhost/home/slycat/src/slycat-data/metro-demo/surfaces/run.11003.700.vtp,700,-239008.2317,20038.13425,-252460.5314,17625.66226,-284485.8023,10724.33609,-11483.17383,13688.28049,-58107.19727,33817.05493,-51241.11785,32820.12215,0.042569102,0.044139269,0.004030433,-0.000657572,-0.005932419,-0.007696585,-0.022156669,-0.013622953,-0.015226687,-0.013153443,-0.022922933,-0.013939438,-0.007493589,-0.005815456,-0.043440207,-0.008006152,-0.060979339,-0.001337234
11003,-322,0.3,0.000214,0.000735,0.03,10400000,30500000,29500000,file://localhost/home/slycat/src/slycat-data/metro-demo/surfaces/run.11003.750.vtp,750,-239008.2317,20038.13425,-252460.5314,17625.66226,-284485.8023,10724.33609,-11483.17383,13688.28049,-58107.19727,33817.05493,-51241.11785,32820.12215,0.028723338,0.05633708,0.005353288,-0.000767931,-0.008908894,-0.008679315,-0.024868018,-0.013801235,-0.017950754,-0.012004461,-0.026008352,-0.014649537,-0.01068155,-0.005273029,-0.047841334,-0.006904271,-0.060850627,0.002277184
11003,-322,0.3,0.000214,0.000735,0.03,10400000,30500000,29500000,file://localhost/home/slycat/src/slycat-data/metro-demo/surfaces/run.11003.800.vtp,800,-239008.2317,20038.13425,-252460.5314,17625.66226,-284485.8023,10724.33609,-11483.17383,13688.28049,-58107.19727,33817.05493,-51241.11785,32820.12215,0.011913478,0.065291723,0.006646307,-0.000736155,-0.011988925,-0.00955984,-0.026279239,-0.011204639,-0.020062971,-0.009498332,-0.026691312,-0.01146754,-0.013915573,-0.003901984,-0.042323133,-0.002097927,-0.061814891,0.004412243
11003,-322,0.3,0.000214,0.000735,0.03,10400000,30500000,29500000,file://localhost/home/slycat/src/slycat-data/metro-demo/surfaces/run.11003.850.vtp,850,-239008.2317,20038.13425,-252460.5314,17625.66226,-284485.8023,10724.33609,-11483.17383,13688.28049,-58107.19727,33817.05493,-51241.11785,32820.12215,-0.00400978,0.068691575,0.007934889,-0.000727296,-0.015048246,-0.010801028,-0.027599582,-0.007278122,-0.02292643,-0.008397559,-0.028484001,-0.008031269,-0.01674422,-0.004000107,-0.045393503,-5.42E-05,-0.06531828,0.007233035
11003,-322,0.3,0.000214,0.000735,0.03,10400000,30500000,29500000,file://localhost/home/slycat/src/slycat-data/metro-demo/surfaces/run.11003.900.vtp,900,-239008.2317,20038.13425,-252460.5314,17625.66226,-284485.8023,10724.33609,-11483.17383,13688.28049,-58107.19727,33817.05493,-51241.11785,32820.12215,-0.019221792,0.069810945,0.009212124,-0.000558976,-0.018019612,-0.0124896,-0.0288256,-0.003721131,-0.025127542,-0.006568445,-0.029547466,-0.004123159,-0.019495337,-0.004248439,-0.046099263,0.003117659,-0.066803057,0.009864421
11003,-322,0.3,0.000214,0.000735,0.03,10400000,30500000,29500000,file://localhost/home/slycat/src/slycat-data/metro-demo/surfaces/run.11003.950.vtp,950,-239008.2317,20038.13425,-252460.5314,17625.66226,-284485.8023,10724.33609,-11483.17383,13688.28049,-58107.19727,33817.05493,-51241.11785,32820.12215,-0.038998124,0.079365747,0.010469653,-0.000185812,-0.02088994,-0.014457478,-0.030842215,-0.001982471,-0.027679968,-0.005653218,-0.031368698,-0.001912184,-0.022498014,-0.003708482,-0.046664332,0.006059813,-0.070257187,0.012439111
11003,-322,0.3,0.000214,0.000735,0.03,10400000,30500000,29500000,file://localhost/home/slycat/src/slycat-data/metro-demo/surfaces/run.11003.1000.vtp,1000,-239008.2317,20038.13425,-252460.5314,17625.66226,-284485.8023,10724.33609,-11483.17383,13688.28049,-58107.19727,33817.05493,-51241.11785,32820.12215,-0.059305559,0.090161819,0.011747793,0.000301147,-0.023750036,-0.01664158,-0.033185301,-0.000407978,-0.030150038,-0.004720569,-0.033741742,-0.000568726,-0.025401015,-0.002745913,-0.051323514,0.007744603,-0.069921188,0.014107779
11181,-500,0.35,0.000249,0.000752,0.03,10400000,30500000,29500000,file://localhost/home/slycat/src/slycat-data/metro-demo/surfaces/run.11181.0.vtp,0,-228951.1915,26715.59594,-244187.5589,24975.90264,-278233.38,7613.809196,-13447.8682,8952.270464,-57727.32383,34305.21456,-50466.43751,35946.6468,0.075292741,-0.037285444,-0.0160364,0.00147945,0.029349307,0.001741594,0.016702913,-0.027157124,0.023185709,-0.020703742,0.016099344,-0.027655342,0.025955968,-0.016351766,-0.039562947,-0.044662905,-0.08231376,-0.05398163
11181,-500,0.35,0.000249,0.000752,0.03,10400000,30500000,29500000,file://localhost/home/slycat/src/slycat-data/metro-demo/surfaces/run.11181.50.vtp,50,-228951.1915,26715.59594,-244187.5589,24975.90264,-278233.38,7613.809196,-13447.8682,8952.270464,-57727.32383,34305.21456,-50466.43751,35946.6468,0.072974287,-0.031177605,-0.012385284,0.001462867,0.024085427,0.001129408,0.039558663,6.37E-05,0.027884074,-0.002324066,0.040077684,-0.000323973,0.025740104,-0.000409567,0.047542207,-0.012818812,0.062258793,-0.026810531
11181,-500,0.35,0.000249,0.000752,0.03,10400000,30500000,29500000,file://localhost/home/slycat/src/slycat-data/metro-demo/surfaces/run.11181.100.vtp,100,-228951.1915,26715.59594,-244187.5589,24975.90264,-278233.38,7613.809196,-13447.8682,8952.270464,-57727.32383,34305.21456,-50466.43751,35946.6468,0.070870064,-0.024355878,-0.009247203,-0.000324152,0.01893077,0.000465868,0.035717266,0.010912014,0.028730494,0.011326108,0.036271686,0.011124193,0.022191816,0.009522094,0.083267799,0.011612735,0.117843373,0.010718663
11181,-500,0.35,0.000249,0.000752,0.03,10400000,30500000,29500000,file://localhost/home/slycat/src/slycat-data/metro-demo/surfaces/run.11181.150.vtp,150,-228951.1915,26715.59594,-244187.5589,24975.90264,-278233.38,7613.809196,-13447.8682,8952.270464,-57727.32383,34305.21456,-50466.43751,35946.6468,0.06814755,-0.015407158,-0.006716675,-0.001770727,0.014541668,-0.000153733,0.026999403,0.010842899,0.026168222,0.017053362,0.027738837,0.010938645,0.01796843,0.013229074,0.079942423,0.016614269,0.116607163,0.018592376
11181,-500,0.35,0.000249,0.000752,0.03,10400000,30500000,29500000,file://localhost/home/slycat/src/slycat-data/metro-demo/surfaces/run.11181.200.vtp,200,-228951.1915,26715.59594,-244187.5589,24975.90264,-278233.38,7613.809196,-13447.8682,8952.270464,-57727.32383,34305.21456,-50466.43751,35946.6468,0.069636831,-0.013479492,-0.004223747,0.000219873,0.010813477,-0.000590188,-0.001295368,-0.017360357,0.006335539,-0.010352877,-0.000159611,-0.015579698,0.008736559,-0.010387799,-0.009513776,-0.015512862,-0.011942505,-0.016201024
11181,-500,0.35,0.000249,0.000752,0.03,10400000,30500000,29500000,file://localhost/home/slycat/src/slycat-data/metro-demo/surfaces/run.11181.250.vtp,250,-228951.1915,26715.59594,-244187.5589,24975.90264,-278233.38,7613.809196,-13447.8682,8952.270464,-57727.32383,34305.21456,-50466.43751,35946.6468,0.05714946,0.019479123,-0.001025728,0.000903169,0.005032165,-0.003022829,-0.004584806,-0.010397317,0.001175537,-0.005910725,-0.004892458,-0.010300019,0.002988604,-0.007835616,-0.029166291,-0.01534083,-0.047951396,-0.016381257
11181,-500,0.35,0.000249,0.000752,0.03,10400000,30500000,29500000,file://localhost/home/slycat/src/slycat-data/metro-demo/surfaces/run.11181.300.vtp,300,-228951.1915,26715.59594,-244187.5589,24975.90264,-278233.38,7613.809196,-13447.8682,8952.270464,-57727.32383,34305.21456,-50466.43751,35946.6468,0.023141868,0.051386396,0.001669096,0.000463897,-0.001352409,-0.001596769,-0.01118573,-0.007618097,-0.005836515,-0.004479016,-0.011432296,-0.007521341,-0.003430009,-0.005232287,-0.039169514,-0.011211983,-0.058478055,-0.009277088
11181,-500,0.35,0.000249,0.000752,0.03,10400000,30500000,29500000,file://localhost/home/slycat/src/slycat-data/metro-demo/surfaces/run.11181.350.vtp,350,-228951.1915,26715.59594,-244187.5589,24975.90264,-278233.38,7613.809196,-13447.8682,8952.270464,-57727.32383,34305.21456,-50466.43751,35946.6468,-0.019488592,0.069877563,0.003645835,-0.00062651,-0.007121789,0.000833867,-0.016890628,-0.004667915,-0.012168895,-0.003322077,-0.017473204,-0.005214698,-0.009298559,-0.003162418,-0.039198368,-0.004522183,-0.058657088,-0.002158577
11181,-500,0.35,0.000249,0.000752,0.03,10400000,30500000,29500000,file://localhost/home/slycat/src/slycat-data/metro-demo/surfaces/run.11181.400.vtp,400,-228951.1915,26715.59594,-244187.5589,24975.90264,-278233.38,7613.809196,-13447.8682,8952.270464,-57727.32383,34305.21456,-50466.43751,35946.6468,-0.061796519,0.067982559,0.005417557,-0.000928306,-0.012389166,0.00348661,-0.023670341,-0.003417865,-0.018602495,-0.003994019,-0.02392313,-0.00319412,-0.014353086,-0.001028608,-0.040219212,0.000704023,-0.056416866,0.003450341
11181,-500,0.35,0.000249,0.000752,0.03,10400000,30500000,29500000,file://localhost/home/slycat/src/slycat-data/metro-demo/surfaces/run.11181.450.vtp,450,-228951.1915,26715.59594,-244187.5589,24975.90264,-278233.38,7613.809196,-13447.8682,8952.270464,-57727.32383,34305.21456,-50466.43751,35946.6468,-0.100691737,0.065049993,0.007266551,-0.000300347,-0.017440318,0.005101202,-0.029058502,-0.003917597,-0.023858127,-0.003492784,-0.029319986,-0.003628826,-0.019287817,-0.000378679,-0.040765455,0.004790138,-0.056970927,0.009090124
11181,-500,0.35,0.000249,0.000752,0.03,10400000,30500000,29500000,file://localhost/home/slycat/src/slycat-data/metro-demo/surfaces/run.11181.500.vtp,500,-228951.1915,26715.59594,-244187.5589,24975.90264,-278233.38,7613.809196,-13447.8682,8952.270464,-57727.32383,34305.21456,-50466.43751,35946.6468,-0.140718926,0.06499965,0.009425331,0.000382944,-0.022778259,0.005960707,-0.031634879,0.001530755,-0.028621484,-0.000928063,-0.031590555,0.0025415,-0.024722179,-0.000016878,-0.045088718,0.008880208,-0.062070326,0.014401359
11181,-500,0.35,0.000249,0.000752,0.03,10400000,30500000,29500000,file://localhost/home/slycat/src/slycat-data/metro-demo/surfaces/run.11181.550.vtp,550,-228951.1915,26715.59594,-244187.5589,24975.90264,-278233.38,7613.809196,-13447.8682,8952.270464,-57727.32383,34305.21456,-50466.43751,35946.6468,-0.17869039,0.052039028,0.011744437,0.001420947,-0.028385933,0.006791495,-0.034294302,0.006671712,-0.032041412,0.004102236,-0.033963726,0.00795654,-0.030059474,0.001215992,-0.046936661,0.01459682,-0.064251964,0.018193407
11181,-500,0.35,0.000249,0.000752,0.03,10400000,30500000,29500000,file://localhost/home/slycat/src/slycat-data/metro-demo/surfaces/run.11181.600.vtp,600,-228951.1915,26715.59594,-244187.5589,24975.90264,-278233.38,7613.809196,-13447.8682,8952.270464,-57727.32383,34305.21456,-50466.43751,35946.6468,-0.211503646,0.032397349,0.014247348,0.002408983,-0.034258955,0.007467027,-0.03844631,0.010807005,-0.03654008,0.007455166,-0.037948999,0.012333475,-0.035778552,0.003278132,-0.048908793,0.020559303,-0.06767858,0.021896876
11181,-500,0.35,0.000249,0.000752,0.03,10400000,30500000,29500000,file://localhost/home/slycat/src/slycat-data/metro-demo/surfaces/run.11181.650.vtp,650,-228951.1915,26715.59594,-244187.5589,24975.90264,-278233.38,7613.809196,-13447.8682,8952.270464,-57727.32383,34305.21456,-50466.43751,35946.6468,-0.252525016,0.034096534,0.017035194,0.002276961,-0.040324407,0.008381358,-0.043598073,0.012729956,-0.041523023,0.010577785,-0.043267161,0.013964786,-0.041593832,0.003814624,-0.051275507,0.025136832,-0.067472646,0.02687108
11181,-500,0.35,0.000249,0.000752,0.03,10400000,30500000,29500000,file://localhost/home/slycat/src/slycat-data/metro-demo/surfaces/run.11181.700.vtp,700,-228951.1915,26715.59594,-244187.5589,24975.90264,-278233.38,7613.809196,-13447.8682,8952.270464,-57727.32383,34305.21456,-50466.43751,35946.6468,-0.294132997,0.024579318,0.020142954,0.001872417,-0.046739691,0.010224238,-0.047522355,0.01720707,-0.047133068,0.013157901,-0.047350809,0.018188268,-0.047888061,0.004593291,-0.056675354,0.029303517,-0.070912423,0.032166562
11181,-500,0.35,0.000249,0.000752,0.03,10400000,30500000,29500000,file://localhost/home/slycat/src/slycat-data/metro-demo/surfaces/run.11181.750.vtp,750,-228951.1915,26715.59594,-244187.5589,24975.90264,-278233.38,7613.809196,-13447.8682,8952.270464,-57727.32383,34305.21456,-50466.43751,35946.6468,-0.328681286,-0.001315727,0.023567033,0.000963373,-0.053478825,0.01184806,-0.052095838,0.022727148,-0.053415906,0.01545651,-0.051920823,0.023571582,-0.054424762,0.006021576,-0.055959859,0.036539633,-0.070959676,0.03861211
11181,-500,0.35,0.000249,0.000752,0.03,10400000,30500000,29500000,file://localhost/home/slycat/src/slycat-data/metro-demo/surfaces/run.11181.800.vtp,800,-228951.1915,26715.59594,-244187.5589,24975.90264,-278233.38,7613.809196,-13447.8682,8952.270464,-57727.32383,34305.21456,-50466.43751,35946.6468,-0.361163241,-0.024814634,0.027302306,0.00113591,-0.060460581,0.012386248,-0.058013724,0.026338254,-0.060115729,0.017421158,-0.057919961,0.027010074,-0.061036218,0.00837564,-0.061192251,0.042998113,-0.076086113,0.045325996
11181,-500,0.35,0.000249,0.000752,0.03,10400000,30500000,29500000,file://localhost/home/slycat/src/slycat-data/metro-demo/surfaces/run.11181.850.vtp,850,-228951.1915,26715.59594,-244187.5589,24975.90264,-278233.38,7613.809196,-13447.8682,8952.270464,-57727.32383,34305.21456,-50466.43751,35946.6468,-0.400453943,-0.035238032,0.031527964,0.00220308,-0.067873337,0.012090922,-0.065869395,0.028372218,-0.067422576,0.018617687,-0.065632038,0.029303128,-0.068095383,0.009736001,-0.062173215,0.050269364,-0.074433521,0.052195468
11181,-500,0.35,0.000249,0.000752,0.03,10400000,30500000,29500000,file://localhost/home/slycat/src/slycat-data/metro-demo/surfaces/run.11181.900.vtp,900,-228951.1915,26715.59594,-244187.5589,24975.90264,-278233.38,7613.809196,-13447.8682,8952.270464,-57727.32383,34305.21456,-50466.43751,35946.6468,-0.429870336,-0.070769568,0.036477926,0.003318406,-0.075959147,0.010901519,-0.073241007,0.029893034,-0.075402232,0.019497423,-0.073111752,0.030538841,-0.076107374,0.009317712,-0.06377043,0.056871103,-0.073861767,0.059781796
11181,-500,0.35,0.000249,0.000752,0.03,10400000,30500000,29500000,file://localhost/home/slycat/src/slycat-data/metro-demo/surfaces/run.11181.950.vtp,950,-228951.1915,26715.59594,-244187.5589,24975.90264,-278233.38,7613.809196,-13447.8682,8952.270464,-57727.32383,34305.21456,-50466.43751,35946.6468,-0.453853249,-0.110347268,0.042021422,0.003580564,-0.084749912,0.009113762,-0.07862903,0.03642854,-0.082796703,0.022940358,-0.078467995,0.037135325,-0.08462131,0.009467048,-0.067902593,0.063845872,-0.077175471,0.066743434
11181,-500,0.35,0.000249,0.000752,0.03,10400000,30500000,29500000,file://localhost/home/slycat/src/slycat-data/metro-demo/surfaces/run.11181.1000.vtp,1000,-228951.1915,26715.59594,-244187.5589,24975.90264,-278233.38,7613.809196,-13447.8682,8952.270464,-57727.32383,34305.21456,-50466.43751,35946.6468,-0.476182911,-0.141689686,0.048529096,-0.006944446,-0.094137234,0.007093398,-0.071319181,0.058956135,-0.079886767,0.046939912,-0.07029386,0.059789405,-0.093863622,0.00888057,-0.073258003,0.071607535,-0.066969624,0.073898958
11459,-233,0.35,0.000267,0.0007,0.0318,10400000,30500000,29500000,file://localhost/home/slycat/src/slycat-data/metro-demo/surfaces/run.11459.0.vtp,0,-236038.4083,34390.26936,-248205.9219,34557.76398,-283839.679,16498.79861,-16971.4356,6076.204207,-60417.41688,39030.04312,-53004.30653,41233.13597,0.075292741,-0.037285444,-0.0160364,0.00147945,0.029349307,0.001741594,0.016702913,-0.027157124,0.023185709,-0.020703742,0.016099344,-0.027655342,0.025955968,-0.016351766,-0.039562947,-0.044662905,-0.08231376,-0.05398163
11459,-233,0.35,0.000267,0.0007,0.0318,10400000,30500000,29500000,file://localhost/home/slycat/src/slycat-data/metro-demo/surfaces/run.11459.50.vtp,50,-236038.4083,34390.26936,-248205.9219,34557.76398,-283839.679,16498.79861,-16971.4356,6076.204207,-60417.41688,39030.04312,-53004.30653,41233.13597,0.074224656,-0.034503354,-0.014227061,0.001863645,0.026865412,0.00145049,0.029689006,-0.014836145,0.022883591,-0.015809293,0.029908702,-0.015330411,0.02621644,-0.008504035,0.01099261,-0.029681966,0.005819514,-0.046907285
11459,-233,0.35,0.000267,0.0007,0.0318,10400000,30500000,29500000,file://localhost/home/slycat/src/slycat-data/metro-demo/surfaces/run.11459.100.vtp,100,-236038.4083,34390.26936,-248205.9219,34557.76398,-283839.679,16498.79861,-16971.4356,6076.204207,-60417.41688,39030.04312,-53004.30653,41233.13597,0.072877898,-0.031368976,-0.012609518,0.001471291,0.02442403,0.001162608,0.039646856,-0.001369442,0.02654698,-0.004903834,0.040191216,-0.001759428,0.025799251,-0.001297392,0.044569171,-0.014122259,0.058329558,-0.029157474
11459,-233,0.35,0.000267,0.0007,0.0318,10400000,30500000,29500000,file://localhost/home/slycat/src/slycat-data/metro-demo/surfaces/run.11459.150.vtp,150,-236038.4083,34390.26936,-248205.9219,34557.76398,-283839.679,16498.79861,-16971.4356,6076.204207,-60417.41688,39030.04312,-53004.30653,41233.13597,0.07149951,-0.028132162,-0.011201221,0.000491597,0.022046909,0.00087212,0.040458393,0.006992005,0.028240928,0.003224273,0.040991773,0.006781345,0.024365544,0.00334024,0.062013928,-0.003508322,0.083956846,-0.011055035
11459,-233,0.35,0.000267,0.0007,0.0318,10400000,30500000,29500000,file://localhost/home/slycat/src/slycat-data/metro-demo/surfaces/run.11459.200.vtp,200,-236038.4083,34390.26936,-248205.9219,34557.76398,-283839.679,16498.79861,-16971.4356,6076.204207,-60417.41688,39030.04312,-53004.30653,41233.13597,0.070757282,-0.025455989,-0.009836226,-0.000169561,0.019838386,0.000619813,0.037603142,0.011380426,0.029069672,0.009974233,0.03821373,0.011561324,0.022754342,0.00698878,0.067205991,0.00128639,0.092644115,-0.000250942
11459,-233,0.35,0.000267,0.0007,0.0318,10400000,30500000,29500000,file://localhost/home/slycat/src/slycat-data/metro-demo/surfaces/run.11459.250.vtp,250,-236038.4083,34390.26936,-248205.9219,34557.76398,-283839.679,16498.79861,-16971.4356,6076.204207,-60417.41688,39030.04312,-53004.30653,41233.13597,0.069380235,-0.021700492,-0.008517835,-0.001156397,0.017589009,0.000352494,0.036244242,0.015040051,0.02748761,0.012546663,0.036911845,0.015236748,0.020886189,0.010120808,0.075507477,0.008999707,0.10743735,0.009776952
11459,-233,0.35,0.000267,0.0007,0.0318,10400000,30500000,29500000,file://localhost/home/slycat/src/slycat-data/metro-demo/surfaces/run.11459.300.vtp,300,-236038.4083,34390.26936,-248205.9219,34557.76398,-283839.679,16498.79861,-16971.4356,6076.204207,-60417.41688,39030.04312,-53004.30653,41233.13597,0.068690244,-0.019775451,-0.007889358,-0.001851202,0.016336493,0.000361622,0.033512281,0.015219651,0.027561711,0.015424181,0.033996729,0.015144009,0.019706619,0.011851498,0.073997296,0.010624659,0.107281039,0.012663924
11459,-233,0.35,0.000267,0.0007,0.0318,10400000,30500000,29500000,file://localhost/home/slycat/src/slycat-data/metro-demo/surfaces/run.11459.350.vtp,350,-236038.4083,34390.26936,-248205.9219,34557.76398,-283839.679,16498.79861,-16971.4356,6076.204207,-60417.41688,39030.04312,-53004.30653,41233.13597,0.067831867,-0.015933351,-0.006931474,-0.001918649,0.014739589,9.04E-05,0.029698578,0.013803753,0.026278882,0.016754039,0.030146497,0.013533691,0.017828972,0.011792151,0.072174376,0.01261363,0.104881837,0.015353789
11459,-233,0.35,0.000267,0.0007,0.0318,10400000,30500000,29500000,file://localhost/home/slycat/src/slycat-data/metro-demo/surfaces/run.11459.400.vtp,400,-236038.4083,34390.26936,-248205.9219,34557.76398,-283839.679,16498.79861,-16971.4356,6076.204207,-60417.41688,39030.04312,-53004.30653,41233.13597,0.067522273,-0.01406419,-0.005813927,-0.001821647,0.012910169,-0.000423464,0.026200814,0.011696854,0.02202518,0.013380704,0.026655829,0.011479044,0.015370051,0.008872015,0.060041356,0.008632635,0.08697655,0.01006127
11459,-233,0.35,0.000267,0.0007,0.0318,10400000,30500000,29500000,file://localhost/home/slycat/src/slycat-data/metro-demo/surfaces/run.11459.450.vtp,450,-236038.4083,34390.26936,-248205.9219,34557.76398,-283839.679,16498.79861,-16971.4356,6076.204207,-60417.41688,39030.04312,-53004.30653,41233.13597,0.071176625,-0.020743296,-0.005383336,-0.000212413,0.012598549,0.000231724,0.006103759,-0.011951459,0.011690796,-0.005225071,0.003690884,-0.015143364,0.012311161,-0.004267549,0.006958938,-0.01243071,0.009043094,-0.016154225
11459,-233,0.35,0.000267,0.0007,0.0318,10400000,30500000,29500000,file://localhost/home/slycat/src/slycat-data/metro-demo/surfaces/run.11459.500.vtp,500,-236038.4083,34390.26936,-248205.9219,34557.76398,-283839.679,16498.79861,-16971.4356,6076.204207,-60417.41688,39030.04312,-53004.30653,41233.13597,0.070174099,-0.016086895,-0.004428495,0.000296883,0.011035618,-0.000372107,0.002769174,-0.012923399,0.008443536,-0.008056188,0.001670751,-0.01456296,0.010952178,-0.006463677,-0.00330078,-0.014387881,-0.006679875,-0.017978948
11459,-233,0.35,0.000267,0.0007,0.0318,10400000,30500000,29500000,file://localhost/home/slycat/src/slycat-data/metro-demo/surfaces/run.11459.550.vtp,550,-236038.4083,34390.26936,-248205.9219,34557.76398,-283839.679,16498.79861,-16971.4356,6076.204207,-60417.41688,39030.04312,-53004.30653,41233.13597,0.068671116,-0.009737439,-0.003524813,0.000512517,0.009465573,-0.001030553,-0.000287867,-0.013963378,0.006406859,-0.00888238,-0.001577992,-0.015440731,0.009550954,-0.005610417,-0.009661744,-0.014686577,-0.017231423,-0.017484411
11459,-233,0.35,0.000267,0.0007,0.0318,10400000,30500000,29500000,file://localhost/home/slycat/src/slycat-data/metro-demo/surfaces/run.11459.600.vtp,600,-236038.4083,34390.26936,-248205.9219,34557.76398,-283839.679,16498.79861,-16971.4356,6076.204207,-60417.41688,39030.04312,-53004.30653,41233.13597,0.06722288,-0.003223089,-0.00267505,0.001079878,0.008019826,-0.001675374,-0.004863309,-0.017922613,0.003202571,-0.011443671,-0.005792323,-0.01792471,0.007504863,-0.007528822,-0.019988692,-0.01645788,-0.032781291,-0.018290679
11459,-233,0.35,0.000267,0.0007,0.0318,10400000,30500000,29500000,file://localhost/home/slycat/src/slycat-data/metro-demo/surfaces/run.11459.650.vtp,650,-236038.4083,34390.26936,-248205.9219,34557.76398,-283839.679,16498.79861,-16971.4356,6076.204207,-60417.41688,39030.04312,-53004.30653,41233.13597,0.065295687,0.003972864,-0.001688857,0.00153726,0.006342757,-0.0023947,-0.009645608,-0.019852177,-0.000207591,-0.014052611,-0.009929757,-0.020172053,0.005450777,-0.008805487,-0.028381037,-0.017021267,-0.044181648,-0.016989691
11459,-233,0.35,0.000267,0.0007,0.0318,10400000,30500000,29500000,file://localhost/home/slycat/src/slycat-data/metro-demo/surfaces/run.11459.700.vtp,700,-236038.4083,34390.26936,-248205.9219,34557.76398,-283839.679,16498.79861,-16971.4356,6076.204207,-60417.41688,39030.04312,-53004.30653,41233.13597,0.055437833,0.022888739,-0.000646468,0.001567632,0.004099579,-0.002546569,-0.012069685,-0.019103447,-0.002638763,-0.013377511,-0.012662069,-0.019424672,0.002952431,-0.008464836,-0.032595618,-0.01579884,-0.051305689,-0.013673554
11459,-233,0.35,0.000267,0.0007,0.0318,10400000,30500000,29500000,file://localhost/home/slycat/src/slycat-data/metro-demo/surfaces/run.11459.750.vtp,750,-236038.4083,34390.26936,-248205.9219,34557.76398,-283839.679,16498.79861,-16971.4356,6076.204207,-60417.41688,39030.04312,-53004.30653,41233.13597,0.031341476,0.040737769,0.000685307,0.00124528,0.00060982,-0.000670036,-0.014879715,-0.016062043,-0.006145481,-0.01120731,-0.01507075,-0.016230612,-0.001176484,-0.006408279,-0.03590585,-0.013077795,-0.056338337,-0.009880075
11459,-233,0.35,0.000267,0.0007,0.0318,10400000,30500000,29500000,file://localhost/home/slycat/src/slycat-data/metro-demo/surfaces/run.11459.800.vtp,800,-236038.4083,34390.26936,-248205.9219,34557.76398,-283839.679,16498.79861,-16971.4356,6076.204207,-60417.41688,39030.04312,-53004.30653,41233.13597,0.009938656,0.05355499,0.001625324,0.000696361,-0.002139118,0.000404352,-0.016840863,-0.013774114,-0.008352609,-0.009165274,-0.016949047,-0.013694175,-0.003447456,-0.004467214,-0.035423866,-0.009724817,-0.055864379,-0.007043695
11459,-233,0.35,0.000267,0.0007,0.0318,10400000,30500000,29500000,file://localhost/home/slycat/src/slycat-data/metro-demo/surfaces/run.11459.850.vtp,850,-236038.4083,34390.26936,-248205.9219,34557.76398,-283839.679,16498.79861,-16971.4356,6076.204207,-60417.41688,39030.04312,-53004.30653,41233.13597,-0.008844255,0.061338361,0.002263013,0.000154432,-0.004258454,0.001646077,-0.01879925,-0.012390163,-0.010810374,-0.008269817,-0.018685054,-0.012019629,-0.005867232,-0.00321479,-0.037535547,-0.008177457,-0.058953407,-0.004662713
11459,-233,0.35,0.000267,0.0007,0.0318,10400000,30500000,29500000,file://localhost/home/slycat/src/slycat-data/metro-demo/surfaces/run.11459.900.vtp,900,-236038.4083,34390.26936,-248205.9219,34557.76398,-283839.679,16498.79861,-16971.4356,6076.204207,-60417.41688,39030.04312,-53004.30653,41233.13597,-0.028757834,0.053850163,0.002815434,-0.000407219,-0.006330378,0.004097858,-0.020605658,-0.011045033,-0.01307941,-0.00777067,-0.020479135,-0.010518592,-0.007478101,-0.002604889,-0.039326392,-0.006036519,-0.061106324,-0.002650224
11459,-233,0.35,0.000267,0.0007,0.0318,10400000,30500000,29500000,file://localhost/home/slycat/src/slycat-data/metro-demo/surfaces/run.11459.950.vtp,950,-236038.4083,34390.26936,-248205.9219,34557.76398,-283839.679,16498.79861,-16971.4356,6076.204207,-60417.41688,39030.04312,-53004.30653,41233.13597,-0.056189828,0.053631987,0.00324698,-0.000690051,-0.008182598,0.006667273,-0.021979246,-0.009622465,-0.014377985,-0.006883018,-0.02170385,-0.009117441,-0.009609948,-0.001800678,-0.040694744,-0.004399043,-0.062248243,-0.001497902
11459,-233,0.35,0.000267,0.0007,0.0318,10400000,30500000,29500000,file://localhost/home/slycat/src/slycat-data/metro-demo/surfaces/run.11459.1000.vtp,1000,-236038.4083,34390.26936,-248205.9219,34557.76398,-283839.679,16498.79861,-16971.4356,6076.204207,-60417.41688,39030.04312,-53004.30653,41233.13597,-0.081420557,0.047627475,0.003713937,-0.000865285,-0.009926123,0.009072976,-0.023438273,-0.008437787,-0.016333379,-0.005278467,-0.023047698,-0.007189855,-0.010959712,-0.001226397,-0.042208569,-0.002710259,-0.063573985,0.000441993